LIGGGHTS (Version LIGGGHTS-PUBLIC 3.7.0, compiled 2018-11-01-09:41:02 by mschramm, git commit f0fe0efec961018203625c692cfdef436fc4d2e3)
## DEM Shear Test of wheat straw in LIGGGHTS

### Material Independent Properties
variable particle_diameter             equal 2.50e-3    # particles diameter in meters
variable bond_out_diameter             equal 2.50e-3    # fiber outer diameter in meters
variable bond_in_diameter              equal 0.0        # fiber inner diameter in meters
variable bond_length                   equal 2.50e-3    # distance, in meters, between two particles in bond
variable bond_damp_type                equal 3          # Use Global Force Damping
variable bond_damp_val                 equal 0.001      # NA
variable particle_density              equal 2500.0     # kg/m3
variable fiber_contact_youngs_modulus  equal 1.4e9      # Pa
variable wall_contact_youngs_modulus   equal 180.0e9    # Pa
variable bond_youngs_modulus           equal 1.4e9      # Pa
variable particle_poissons_ratio       equal 0.3        # NA
variable wall_poissons_ratio           equal 0.3        # NA
variable coef_res_pp                   equal 0.500      # particle-particle coefficient of restitution
variable coef_res_pw                   equal 0.300      # particle-wall coefficient of restitution
variable coef_res_ww                   equal 0.500      # wall-wall coefficient of restitution
variable coef_fri_pp                   equal 0.400      # particle-particle coefficient of friction
variable coef_fri_pw                   equal 0.600      # particle-wall coefficient of friction
variable coef_fri_ww                   equal 0.200      # wall-wall coefficient of friction
### Simulation Independent Parameters
variable ke_tol                        equal 1.0e-4     # Energy that we will run the simulation to obtain
variable res_tol                       equal 1.0e-6     # Change of height tollerance that must be met
variable restart_time                  equal 1.0e-2     # how often we write a restart file
variable fileprint_time                equal 1.0e-2     # how often we print to the file in seconds
variable thermo_time                   equal 1.0e-3     # how often we print to the screen in seconds
variable output_time                   equal 1.0e-3     # how often data is writen to csv file in seconds
variable relax_time                    equal 1.0e-3
variable shear_speed                   equal 0.04       # Shear speed
variable percent_strain                equal 0.18       # Distance to shear
variable shear_pressure                equal 50000      # Pressure in N/m2
variable shear_box_length              equal 0.101      # Length of shear box in meters
variable mass_shear_top_plate          equal 0.401      # Mass of the top shear plate

### Material Dependent Properties
variable particle_radius               equal 0.5*${particle_diameter}
variable particle_radius               equal 0.5*0.0025
variable bond_shear_modulus            equal ${bond_youngs_modulus}/(2.0*(1.0+${particle_poissons_ratio}))
variable bond_shear_modulus            equal 1400000000/(2.0*(1.0+${particle_poissons_ratio}))
variable bond_shear_modulus            equal 1400000000/(2.0*(1.0+0.3))
variable bond_out_per                  equal ${bond_out_diameter}/${particle_diameter}
variable bond_out_per                  equal 0.0025/${particle_diameter}
variable bond_out_per                  equal 0.0025/0.0025
variable bond_in_per                   equal ${bond_in_diameter}/${particle_diameter}
variable bond_in_per                   equal 0/${particle_diameter}
variable bond_in_per                   equal 0/0.0025


### Calculate dt using the bond model
variable r2                            equal ${particle_radius}*${particle_radius}
variable r2                            equal 0.00125*${particle_radius}
variable r2                            equal 0.00125*0.00125
variable r3                            equal ${r2}*${particle_radius}
variable r3                            equal 1.5625e-06*${particle_radius}
variable r3                            equal 1.5625e-06*0.00125
variable K                             equal ${bond_youngs_modulus}*PI*${r2}/${bond_length}
variable K                             equal 1400000000*PI*${r2}/${bond_length}
variable K                             equal 1400000000*PI*1.5625e-06/${bond_length}
variable K                             equal 1400000000*PI*1.5625e-06/0.0025
variable m                             equal 4.0*PI*${r3}*${particle_density}/3.0
variable m                             equal 4.0*PI*1.953125e-09*${particle_density}/3.0
variable m                             equal 4.0*PI*1.953125e-09*2500/3.0
variable w                             equal sqrt($K/$m)
variable w                             equal sqrt(2748893.57189107/$m)
variable w                             equal sqrt(2748893.57189107/2.04530771718085e-05)
if (${bond_damp_type}==3) then 	"variable dt                   equal 0.95/((1.1695+0.41628*${bond_damp_val})*$w)" else 	"variable dt                   equal 0.95/((1.0+2.9392*${bond_damp_val})*$w)"
if (3==3) then 	"variable dt                   equal 0.95/((1.1695+0.41628*${bond_damp_val})*$w)" else 	"variable dt                   equal 0.95/((1.0+2.9392*${bond_damp_val})*$w)"
variable dt                   equal 0.95/((1.1695+0.41628*${bond_damp_val})*$w)
variable dt                   equal 0.95/((1.1695+0.41628*0.001)*$w)
variable dt                   equal 0.95/((1.1695+0.41628*0.001)*366606.055596468)

### Simulation Dependent Parameters
variable restart_step                  equal ceil(${restart_time}/${dt})
variable restart_step                  equal ceil(0.01/${dt})
variable restart_step                  equal ceil(0.01/2.21497682428387e-06)
variable fileprint_step                equal ceil(${fileprint_time}/${dt})
variable fileprint_step                equal ceil(0.01/${dt})
variable fileprint_step                equal ceil(0.01/2.21497682428387e-06)
variable thermo_step                   equal ceil(${thermo_time}/${dt})
variable thermo_step                   equal ceil(0.001/${dt})
variable thermo_step                   equal ceil(0.001/2.21497682428387e-06)
variable output_step                   equal ceil(${output_time}/${dt})
variable output_step                   equal ceil(0.001/${dt})
variable output_step                   equal ceil(0.001/2.21497682428387e-06)
variable shear_force                   equal ${shear_pressure}*(${shear_box_length}*${shear_box_length})+${mass_shear_top_plate}*9.81
variable shear_force                   equal 50000*(${shear_box_length}*${shear_box_length})+${mass_shear_top_plate}*9.81
variable shear_force                   equal 50000*(0.101*${shear_box_length})+${mass_shear_top_plate}*9.81
variable shear_force                   equal 50000*(0.101*0.101)+${mass_shear_top_plate}*9.81
variable shear_force                   equal 50000*(0.101*0.101)+0.401*9.81
variable relax_step                    equal ceil(${relax_time}/${dt})
variable relax_step                    equal ceil(0.001/${dt})
variable relax_step                    equal ceil(0.001/2.21497682428387e-06)

shell mkdir post

### Build Simulation

# Specify what we are simulating
atom_style hybrid granular bond/gran n_bondtypes 1 bonds_per_atom 6
atom_modify map array
hard_particles yes # <- Needed because of the high Youngs modulus

## newton off is needed due to the tangential history contact model
newton off
communicate single vel yes

# Use hertz-mindeln contact model
pair_style gran model hertz tangential history
# Use the stiff granular bond model
bond_style gran
WARNING: Bond granular: This is a beta version - be careful! (../bond_gran.cpp:100)

processors * * *

## Read in the restart file
read_restart restarts/restart*.liggghts
  orthogonal box = (-0.125 -0.125 -0.01) to (0.225 0.125 0.125)
  1 by 1 by 1 MPI processor grid
WARNING: Bond granular: This is a beta version - be careful! (../bond_gran.cpp:100)
  15912 atoms
  11934 bonds
  2 = max # of 1-2 neighbors
  1 = max # of 1-3 neighbors
  2 = max # of 1-4 neighbors
  3 = max # of special neighbors

# Set neighbor bin sizes and update after each run step if needed
neighbor      0.001 bin
neigh_modify delay 0

## Set coefficients for contact and bond model
# For the contact model, we do not need to set anything
pair_coeff * *
# Set coefficients for bond model
bond_coeff 1 ${bond_out_per} ${bond_in_per} ${bond_youngs_modulus} ${bond_shear_modulus} ${bond_damp_type} ${bond_damp_val} 1 1.0e32 1.0e32
bond_coeff 1 1 ${bond_in_per} ${bond_youngs_modulus} ${bond_shear_modulus} ${bond_damp_type} ${bond_damp_val} 1 1.0e32 1.0e32
bond_coeff 1 1 0 ${bond_youngs_modulus} ${bond_shear_modulus} ${bond_damp_type} ${bond_damp_val} 1 1.0e32 1.0e32
bond_coeff 1 1 0 1400000000 ${bond_shear_modulus} ${bond_damp_type} ${bond_damp_val} 1 1.0e32 1.0e32
bond_coeff 1 1 0 1400000000 538461538.461538 ${bond_damp_type} ${bond_damp_val} 1 1.0e32 1.0e32
bond_coeff 1 1 0 1400000000 538461538.461538 3 ${bond_damp_val} 1 1.0e32 1.0e32
bond_coeff 1 1 0 1400000000 538461538.461538 3 0.001 1 1.0e32 1.0e32

fix m1 all property/global youngsModulus peratomtype ${fiber_contact_youngs_modulus} ${wall_contact_youngs_modulus}
fix m1 all property/global youngsModulus peratomtype 1400000000 ${wall_contact_youngs_modulus}
fix m1 all property/global youngsModulus peratomtype 1400000000 180000000000
fix m2 all property/global poissonsRatio peratomtype ${particle_poissons_ratio} ${wall_poissons_ratio}
fix m2 all property/global poissonsRatio peratomtype 0.3 ${wall_poissons_ratio}
fix m2 all property/global poissonsRatio peratomtype 0.3 0.3
fix m3 all property/global coefficientRestitution peratomtypepair 2 ${coef_res_pp} ${coef_res_pw}                                                                     ${coef_res_pw} ${coef_res_ww}
fix m3 all property/global coefficientRestitution peratomtypepair 2 0.5 ${coef_res_pw}                                                                     ${coef_res_pw} ${coef_res_ww}
fix m3 all property/global coefficientRestitution peratomtypepair 2 0.5 0.3                                                                     ${coef_res_pw} ${coef_res_ww}
fix m3 all property/global coefficientRestitution peratomtypepair 2 0.5 0.3                                                                     0.3 ${coef_res_ww}
fix m3 all property/global coefficientRestitution peratomtypepair 2 0.5 0.3                                                                     0.3 0.5

fix m4 all property/global coefficientFriction peratomtypepair 2 ${coef_fri_pp} ${coef_fri_pw}                                                                  ${coef_fri_pw} ${coef_fri_ww}
fix m4 all property/global coefficientFriction peratomtypepair 2 0.4 ${coef_fri_pw}                                                                  ${coef_fri_pw} ${coef_fri_ww}
fix m4 all property/global coefficientFriction peratomtypepair 2 0.4 0.6                                                                  ${coef_fri_pw} ${coef_fri_ww}
fix m4 all property/global coefficientFriction peratomtypepair 2 0.4 0.6                                                                  0.6 ${coef_fri_ww}
fix m4 all property/global coefficientFriction peratomtypepair 2 0.4 0.6                                                                  0.6 0.2

fix BotShear all mesh/surface/stress file STL/ShearBox_TopPlate.STL type 2                        scale 0.001 move 0.0 0.0 0.0 curvature_tolerant yes
INFO: mesh file (STL/ShearBox_TopPlate.STL) is required, but data will be taken from restart file (../fix_mesh.cpp:416)
Resetting global state of Fix BotShear Style mesh/surface/stress from restart file info

# Top plate has a mass of 401 grams
fix TopShear all mesh/surface/stress/servo file STL/ShearBox_TopPlate.STL type 2                        scale 0.001 rotate axis 1 0 0 angle 180 move 0.0 0.1015 0.080                        curvature_tolerant yes com 0.05 0.05 0.08 ctrlPV force                        axis 0.0 0.0 -1.0 target_val ${shear_force} vel_max 5.0                        kp 5.0e-2 ki 0.0 kd 0.0
fix TopShear all mesh/surface/stress/servo file STL/ShearBox_TopPlate.STL type 2                        scale 0.001 rotate axis 1 0 0 angle 180 move 0.0 0.1015 0.080                        curvature_tolerant yes com 0.05 0.05 0.08 ctrlPV force                        axis 0.0 0.0 -1.0 target_val 513.98381 vel_max 5.0                        kp 5.0e-2 ki 0.0 kd 0.0
INFO: mesh file (STL/ShearBox_TopPlate.STL) is required, but data will be taken from restart file (../fix_mesh.cpp:416)
Resetting global state of Fix TopShear Style mesh/surface/stress/servo from restart file info

fix BotHalfShear all mesh/surface/stress file STL/ShearBox_BottomHalf.STL                        type 2 scale 0.001 move 0.0 0.0 0.0 curvature_tolerant yes
INFO: mesh file (STL/ShearBox_BottomHalf.STL) is required, but data will be taken from restart file (../fix_mesh.cpp:416)
Resetting global state of Fix BotHalfShear Style mesh/surface/stress from restart file info

fix TopHalfShear all mesh/surface/stress file STL/ShearBox_TopHalf.STL                        type 2 scale 0.001 move 0.0 0.0 0.025 curvature_tolerant yes
INFO: mesh file (STL/ShearBox_TopHalf.STL) is required, but data will be taken from restart file (../fix_mesh.cpp:416)
Resetting global state of Fix TopHalfShear Style mesh/surface/stress from restart file info

fix wall all wall/gran model hertz tangential history mesh n_meshes 4 meshes                        BotShear TopShear BotHalfShear TopHalfShear
Resetting global state of Fix n_neighs_mesh_BotShear Style property/atom from restart file info
Resetting per-atom state of Fix n_neighs_mesh_BotShear Style property/atom from restart file info
Resetting global state of Fix tracker_BotShear Style contacthistory/mesh from restart file info
Resetting per-atom state of Fix tracker_BotShear Style contacthistory/mesh from restart file info
Resetting global state of Fix n_neighs_mesh_TopShear Style property/atom from restart file info
Resetting per-atom state of Fix n_neighs_mesh_TopShear Style property/atom from restart file info
Resetting global state of Fix tracker_TopShear Style contacthistory/mesh from restart file info
Resetting per-atom state of Fix tracker_TopShear Style contacthistory/mesh from restart file info
Resetting global state of Fix n_neighs_mesh_BotHalfShear Style property/atom from restart file info
Resetting per-atom state of Fix n_neighs_mesh_BotHalfShear Style property/atom from restart file info
Resetting global state of Fix tracker_BotHalfShear Style contacthistory/mesh from restart file info
Resetting per-atom state of Fix tracker_BotHalfShear Style contacthistory/mesh from restart file info
Resetting global state of Fix n_neighs_mesh_TopHalfShear Style property/atom from restart file info
Resetting per-atom state of Fix n_neighs_mesh_TopHalfShear Style property/atom from restart file info
Resetting global state of Fix tracker_TopHalfShear Style contacthistory/mesh from restart file info
Resetting per-atom state of Fix tracker_TopHalfShear Style contacthistory/mesh from restart file info

fix wall_x1 all wall/gran model hertz tangential history primitive type 2 xplane 0.0
fix wall_x2 all wall/gran model hertz tangential history primitive type 2 xplane 0.1015
fix wall_y1 all wall/gran model hertz tangential history primitive type 2 yplane 0.0
fix wall_y2 all wall/gran model hertz tangential history primitive type 2 yplane 0.1015

# Get forces, torques, and eq dist from the bonds
compute bc all property/local batom1x batom1y batom1z batom2x batom2y batom2z batom1 batom2 btype bforceX bforceY bforceZ btorqueX btorqueY btorqueZ beqdist

fix grav all gravity 9.81 vector 0.0 0.0 -1.0

fix integr all nve/sphere

timestep ${dt}
timestep 2.21497682428387e-06
variable sim_time equal step*${dt}
variable sim_time equal step*2.21497682428387e-06

region bulk_box block 0.025 0.1 0.0 0.1 0.0065 0.0450 units box
variable num_atoms equal count(all,bulk_box)
variable vs equal v_num_atoms*4./3.*3.14*${r3}
variable vs equal v_num_atoms*4./3.*3.14*1.953125e-09
variable vt equal 0.1*0.1*(0.03-0.0065)
variable bulk_den equal 114.12*v_vs/${vt} # ${density}*v_vs/${vt}
variable bulk_den equal 114.12*v_vs/0.000235 

variable zforc equal f_TopShear[3]
variable zdisp equal f_TopShear[9]

variable xforc equal f_TopShear[1]
variable xdisp equal f_BotHalfShear[7]

thermo_style custom step atoms numbond v_sim_time cpu cpuremain ke v_bulk_den v_zdisp v_zforc v_xdisp v_xforc
thermo ${thermo_step}
thermo 452
thermo_modify lost ignore norm no

dump stlbotshear all mesh/vtk ${fileprint_step} post/stl_BotShear*.vtk stress stresscomponents BotShear
dump stlbotshear all mesh/vtk 4515 post/stl_BotShear*.vtk stress stresscomponents BotShear
dump stltopshear all mesh/vtk ${fileprint_step} post/stl_TopShear*.vtk stress stresscomponents TopShear
dump stltopshear all mesh/vtk 4515 post/stl_TopShear*.vtk stress stresscomponents TopShear
dump stlbothalf  all mesh/vtk ${fileprint_step} post/stl_BotHalf*.vtk  stress stresscomponents BotHalfShear
dump stlbothalf  all mesh/vtk 4515 post/stl_BotHalf*.vtk  stress stresscomponents BotHalfShear
dump stltophalf  all mesh/vtk ${fileprint_step} post/stl_TopHalf*.vtk  stress stresscomponents TopHalfShear
dump stltophalf  all mesh/vtk 4515 post/stl_TopHalf*.vtk  stress stresscomponents TopHalfShear
dump dmp all custom ${fileprint_step} post/dump*.liggghts id type x y z ix iy iz vx vy vz fx fy fz omegax omegay omegaz radius
dump dmp all custom 4515 post/dump*.liggghts id type x y z ix iy iz vx vy vz fx fy fz omegax omegay omegaz radius
dump bondforcechain all local ${fileprint_step} post/bfc*.bond     c_bc[1] c_bc[2] c_bc[3] c_bc[4] c_bc[5] c_bc[6] c_bc[7] c_bc[8] c_bc[9] c_bc[10] c_bc[11] c_bc[12] c_bc[13] c_bc[14] c_bc[15] c_bc[16]
dump bondforcechain all local 4515 post/bfc*.bond     c_bc[1] c_bc[2] c_bc[3] c_bc[4] c_bc[5] c_bc[6] c_bc[7] c_bc[8] c_bc[9] c_bc[10] c_bc[11] c_bc[12] c_bc[13] c_bc[14] c_bc[15] c_bc[16]

variable my_ke equal ke
fix outfile all print ${output_step} "${sim_time}, ${my_ke}, ${bulk_den}, ${xdisp}, ${zdisp}, ${xforc}, ${zforc}" file results2.csv screen no title "t, ke, bulk_den, x, z, fx, fz"
fix outfile all print 452 "${sim_time}, ${my_ke}, ${bulk_den}, ${xdisp}, ${zdisp}, ${xforc}, ${zforc}" file results2.csv screen no title "t, ke, bulk_den, x, z, fx, fz"

restart ${restart_step} restarts/restart2.liggghts restarts/restart2.liggghts
restart 4515 restarts/restart2.liggghts restarts/restart2.liggghts

variable old_time file cur_time.txt

fix mv_bot_half all move/mesh mesh BotHalfShear linear ${shear_speed} 0.0 0.0
fix mv_bot_half all move/mesh mesh BotHalfShear linear 0.04 0.0 0.0
fix mv_bot_sher all move/mesh mesh BotShear linear ${shear_speed} 0.0 0.0
fix mv_bot_sher all move/mesh mesh BotShear linear 0.04 0.0 0.0

variable shear_dist equal ${shear_box_length}*${percent_strain}
variable shear_dist equal 0.101*${percent_strain}
variable shear_dist equal 0.101*0.18
variable time_shear equal ${shear_dist}/${shear_speed}+${old_time}
variable time_shear equal 0.01818/${shear_speed}+${old_time}
variable time_shear equal 0.01818/0.04+${old_time}
variable time_shear equal 0.01818/0.04+0.189223255121747
variable run_shear equal round(${time_shear}/${dt})
variable run_shear equal round(0.643723255121747/${dt})
variable run_shear equal round(0.643723255121747/2.21497682428387e-06)
run ${run_shear} upto
run 290623 upto
Resetting global state of Fix contacthistory Style contacthistory from restart file info
Resetting per-atom state of Fix contacthistory Style contacthistory from restart file info
Resetting global state of Fix BOND_PROPAGATE Style bond/propagate/gran from restart file info
Setting up run at Fri Nov  2 09:41:38 2018

WARNING: Fix mesh: Mesh contains highly skewed element, moving mesh (if used) will not parallelize well (../surface_mesh_I.h:656)
WARNING: Fix mesh: Mesh contains highly skewed element, moving mesh (if used) will not parallelize well (../surface_mesh_I.h:656)
Memory usage per processor = 42.472 Mbytes
    Step    Atoms  numbond       sim_time            CPU        CPULeft         KinEng       bulk_den          zdisp          zforc          xdisp          xforc 
   85429    15912    11934     0.18922326              0              0  6.6437492e-05      46.948315    0.044488966              0              0              0 
   85880    15912    11934     0.19022221      5.9953689      2721.7515  0.00014080852      46.956257    0.044485169      503.26983  3.9958182e-05      11.229763 
   86332    15912    11934     0.19122338      10.925365      2471.7098  0.00016650293      46.972141    0.044478286      497.68388  8.0004963e-05      39.270501 
   86784    15912    11934     0.19222455      16.174702      2433.2364   0.0001845209      46.972141     0.04446998      495.20657  0.00012005174      45.196804 
   87236    15912    11934     0.19322572      21.127538      2378.0116  0.00017204013      46.984054    0.044461175      493.70244  0.00016009852      54.932138 
   87688    15912    11934     0.19422689      25.971768      2333.1479  0.00014384349      46.976112    0.044452848      496.59523  0.00020014531      56.338636 
   88140    15912    11934     0.19522806      30.986563      2314.3683  0.00013967693      46.999938    0.044445552      498.95995  0.00024019209       74.68781 
   88592    15912    11934     0.19622923      35.968595      2297.4301  0.00017066591      46.999938    0.044438442      498.53883  0.00028023887       58.90579 
   89044    15912    11934      0.1972304      41.110592      2292.4017  0.00015585841      46.999938     0.04443084      500.01925  0.00032028565      71.702472 
   89496    15912    11934     0.19823157      46.383051      2293.7999  0.00015014685       47.01185    0.044423781      501.99146  0.00036033243      68.333314 
   89948    15912    11934     0.19923274      51.514998      2287.6239  0.00016801169      47.015821    0.044417179      503.02051  0.00040037921      73.568697 
   90400    15912    11934      0.2002339       57.89329      2331.8383   0.0001539404      47.023763    0.044410115      501.64891  0.00044042599      57.372466 
   90852    15912    11934     0.20123507      63.230635       2329.273    0.000159417      47.031705    0.044403578       500.8618  0.00048047277      82.873019 
   91304    15912    11934     0.20223624      68.657703      2329.3251  0.00015353416      47.039647    0.044398117       502.1633  0.00052051955       78.97606 
   91756    15912    11934     0.20323741      73.668107       2315.498  0.00016634118      47.031705     0.04439276      503.84886  0.00056056633      92.203635 
   92208    15912    11934     0.20423858      78.562966      2299.4647  0.00014626145      47.035676    0.044388282      506.34987  0.00060061312      79.500233 
   92660    15912    11934     0.20523975      83.650099      2290.0878  0.00015736891      47.027734     0.04438445      507.00262   0.0006406599      105.52942 
   93112    15912    11934     0.20624092      89.048722      2289.2233  0.00014162862      47.031705    0.044381138      508.40257  0.00068070668      82.219584 
   93564    15912    11934     0.20724209      94.528848      2289.8292   0.0001854982      47.023763    0.044377634      505.82401  0.00072075346      95.201075 
   94016    15912    11934     0.20824326      99.812469      2285.2953  0.00014182055      47.035676    0.044374363      509.99502  0.00076080024      65.080559 
   94468    15912    11934     0.20924443      104.96546      2277.8516   0.0001391898      47.043618    0.044371626      504.93883  0.00080084702      89.038542 
   94920    15912    11934      0.2102456      110.53309      2279.1758  0.00016291104       47.05156    0.044368948       506.8078   0.0008408938       103.2413 
   95372    15912    11934     0.21124677      115.53933      2268.8494  0.00016439687      47.055531    0.044366317      512.37003  0.00088094058      106.41582 
   95824    15912    11934     0.21224794      120.82074      2264.1423  0.00017266284      47.059502    0.044363558      510.13749  0.00092098736      96.860452 
   96276    15912    11934     0.21324911       125.8349       2254.599   0.0001642213      47.079356    0.044361306      508.78321  0.00096103414      105.57237 
   96728    15912    11934     0.21425028      130.70648      2242.9714   0.0001261642      47.087298    0.044359731      517.21676   0.0010010809      86.431294 
   97180    15912    11934     0.21525145      135.88162      2236.8606  0.00013023329      47.091269    0.044358465      516.28974   0.0010411277      101.82587 
   97632    15912    11934     0.21625262      140.75665      2226.0728  0.00015118501      47.103182    0.044357454      516.81479   0.0010811745      99.894538 
   98084    15912    11934     0.21725379      145.78348      2218.0171  0.00013741505      47.119065    0.044356664      505.65364   0.0011212213      106.29538 
   98536    15912    11934     0.21825496      150.67047      2208.1207  0.00014465362      47.130978    0.044356135      514.34562    0.001161268      98.024059 
   98988    15912    11934     0.21925613      155.58877       2199.001  0.00017084122       47.13892    0.044355619      507.74456   0.0012013148      100.72419 
   99440    15912    11934      0.2202573      161.60098      2205.0789  0.00015833823      47.146862    0.044354844       512.5625   0.0012413616      124.57147 
   99892    15912    11934     0.22125846      166.52427       2196.041  0.00015495751      47.162746    0.044353813      515.17299   0.0012814084      104.23907 
  100344    15912    11934     0.22225963      171.46708      2187.5015  0.00015266438      47.174659    0.044352999      511.07286   0.0013214552      102.98312 
  100796    15912    11934      0.2232608      176.45408      2179.7195  0.00015616314      47.198484    0.044352577      517.14645    0.001361502      99.335956 
  101248    15912    11934     0.22426197      181.39745      2171.5748  0.00015252001      47.210397    0.044352604      511.84221   0.0014015487      115.60309 
  101700    15912    11934     0.22526314      186.24918      2162.5441   0.0001855848      47.226281    0.044352721      516.04645   0.0014415955      117.78346 
  102152    15912    11934     0.22626431      191.05169      2153.1844  0.00014120575      47.238193    0.044353082      516.66953   0.0014816423      101.66896 
  102604    15912    11934     0.22726548      196.23414       2148.224   0.0001391598      47.269961      0.0443537      518.20314   0.0015216891      110.52201 
  103056    15912    11934     0.22826665      201.40141      2143.0907  0.00016320298      47.277903    0.044354431      515.44371   0.0015617359      112.53534 
  103508    15912    11934     0.22926782      206.58898      2138.1657  0.00018691953      47.289816    0.044355007      515.04057   0.0016017826      102.97571 
  103960    15912    11934     0.23026899      212.47335      2140.2468  0.00016298576      47.297757    0.044354578      514.35388   0.0016418294      96.826317 
  104412    15912    11934     0.23127016      217.34725      2132.0365  0.00016026454      47.305699    0.044354352      518.64484   0.0016818762      110.03525 
  104864    15912    11934     0.23227133      222.32417       2124.966  0.00020104874      47.305699    0.044354386      512.25479    0.001721923      85.904711 
  105316    15912    11934      0.2332725      227.34184      2118.3705  0.00017767613      47.325554    0.044354389      518.53972   0.0017619698      97.475201 
  105768    15912    11934     0.23427367      232.23699      2110.7316  0.00015064746      47.341438    0.044354686      511.75213   0.0018020165      106.43349 
  106220    15912    11934     0.23527484      237.19929      2103.8074  0.00013659235       47.35335     0.04435529       519.8255   0.0018420633      114.27619 
  106672    15912    11934     0.23627601      242.15106      2096.8756  0.00013986962      47.361292    0.044356329      514.92923   0.0018821101      101.72284 
  107124    15912    11934     0.23727718      247.13254      2090.2777  0.00013743303      47.385118    0.044357619      518.81203   0.0019221569      130.21693 
  107576    15912    11934     0.23827835      252.15856      2084.1138  0.00015019924      47.408943    0.044359091      512.80614   0.0019622037      103.74425 
  108028    15912    11934     0.23927952      257.18412      2077.9917    0.000174921      47.424827    0.044360861      517.59008   0.0020022505      112.50483 
  108480    15912    11934     0.24028069      263.21295      2079.8402  0.00012827587      47.428798    0.044362742       518.4898   0.0020422972      124.20146 
  108932    15912    11934     0.24128186      268.15772      2073.0054  0.00016246828      47.432769    0.044364986        517.012    0.002082344      131.14452 
  109384    15912    11934     0.24228302      273.03143      2065.7042  0.00013310836      47.456595    0.044367536      519.19941   0.0021223908      116.59184 
  109836    15912    11934     0.24328419      277.99549      2059.1622  0.00013332252       47.48042    0.044370479      522.07679   0.0021624376      133.01435 
  110288    15912    11934     0.24428536      282.99889      2052.9629   0.0001385689      47.488362    0.044373731       519.5962   0.0022024844      140.66283 
  110740    15912    11934     0.24528653      287.85262      2045.7427  0.00014656216      47.504246    0.044377126      520.06112   0.0022425311      108.35785 
  111192    15912    11934      0.2462877       292.8307      2039.4716  0.00014495897      47.532042    0.044380585       519.7385   0.0022825779      136.01976 
  111644    15912    11934     0.24728887       297.9577      2034.2617  0.00013883948      47.536013    0.044384053      522.83371   0.0023226247      123.69282 
  112096    15912    11934     0.24829004      302.92307      2027.9727  0.00013571165      47.559839    0.044387524      523.56024   0.0023626715      107.95871 
  112548    15912    11934     0.24929121      308.08203      2022.9989  0.00018241519      47.567781     0.04439091      523.69154   0.0024027183      122.44218 
  113000    15912    11934     0.25029238      313.84773      2021.9279  0.00014189972      47.567781    0.044394204      520.35438    0.002442765      145.27549 
  113452    15912    11934     0.25129355      318.93789      2016.4346  0.00014492234      47.571752    0.044397809      523.74599   0.0024828118      136.57691 
  113904    15912    11934     0.25229472      324.15842       2011.763  0.00017192109      47.591606    0.044401163      523.64922   0.0025228586       117.1424 
  114356    15912    11934     0.25329589      329.14429      2005.6444  0.00017060916       47.60749    0.044404033      520.50167   0.0025629054      138.87159 
  114808    15912    11934     0.25429706      334.17049      1999.8021  0.00020274357      47.635286    0.044406543      516.40438   0.0026029522      140.33814 
  115260    15912    11934     0.25529823        339.108       1993.463  0.00016264557       47.65117    0.044409357      519.40829   0.0026429989      125.94588 
  115712    15912    11934      0.2562994      344.33171       1988.819  0.00015852469      47.663083    0.044412653      519.34822   0.0026830457      120.07209 
  116164    15912    11934     0.25730057      349.50049       1983.846  0.00014571083      47.674996    0.044415968      521.98202   0.0027230925      145.36228 
  116616    15912    11934     0.25830174      354.41938      1977.4731  0.00016403224      47.686909    0.044419344      522.54737   0.0027631393       131.0438 
  117068    15912    11934     0.25930291       359.3531      1971.2231  0.00014229216      47.698821    0.044422619      519.63582   0.0028031861      136.20722 
  117520    15912    11934     0.26030408      365.27987      1970.3668  0.00014979373      47.722647    0.044425969       522.3653   0.0028432329      118.65707 
  117972    15912    11934     0.26130525      370.36407      1964.8996  0.00014541461      47.730589    0.044429621       522.2956   0.0028832796      107.71558 
  118424    15912    11934     0.26230642      375.41826      1959.2862  0.00012325123      47.754414    0.044433272      522.11267   0.0029233264      137.04067 
  118876    15912    11934     0.26330758      380.31049      1952.8564  0.00013603936      47.762356    0.044437143      522.92799   0.0029633732      122.05906 
  119328    15912    11934     0.26430875      385.47276       1947.832  0.00013524035      47.782211    0.044441161      517.26956     0.00300342      155.99628 
  119780    15912    11934     0.26530992      390.43821      1941.8251  0.00015087318      47.802066    0.044445198      521.50656   0.0030434668      131.22644 
  120232    15912    11934     0.26631109      395.51841      1936.4071  0.00012543973      47.810007    0.044448803       523.0305   0.0030835135      145.00814 
  120684    15912    11934     0.26731226      400.63203      1931.1589  0.00013460858      47.817949    0.044452083      521.02671   0.0031235603      135.37163 
  121136    15912    11934     0.26831343      405.71555      1925.7712  0.00012251773      47.825891    0.044454663      521.34154   0.0031636071      146.73291 
  121588    15912    11934      0.2693146      410.49433      1918.9665  0.00014392691      47.837804    0.044457848      523.14289   0.0032036539      152.08492 
  122040    15912    11934     0.27031577        416.267      1916.7884  0.00019940706      47.845746    0.044461062      522.19682   0.0032437007      131.62307 
  122492    15912    11934     0.27131694        421.105      1910.2826  0.00014857167      47.873542    0.044463729      523.57076   0.0032837474      143.76615 
  122944    15912    11934     0.27231811      426.14037      1904.6992  0.00012807469      47.885455    0.044467495      523.60017   0.0033237942      136.72739 
  123396    15912    11934     0.27331928      431.26693      1899.5305  0.00015768729      47.897368    0.044471975      523.97576    0.003363841      113.66486 
  123848    15912    11934     0.27432045      436.80503      1896.1493   0.0001466237      47.917223    0.044476698      525.49847   0.0034038878      150.05213 
  124300    15912    11934     0.27532162      442.37842      1892.8689  0.00013126198      47.937077    0.044481305      523.77524   0.0034439346      132.03361 
  124752    15912    11934     0.27632279       448.2645      1890.8548  0.00015644217      47.941048    0.044486016      524.28434   0.0034839813      153.46106 
  125204    15912    11934     0.27732396      453.78151      1887.2177  0.00016222255      47.945019    0.044490518      522.92464   0.0035240281      130.75725 
  125656    15912    11934     0.27832513      459.11851      1882.8002  0.00014313443      47.952961    0.044494893      523.31551   0.0035640749      138.58608 
  126108    15912    11934      0.2793263      464.32411      1877.8309  0.00015420257      47.956932    0.044499226      524.55647   0.0036041217      128.81014 
  126560    15912    11934     0.28032747      470.34984      1876.1276  0.00016137671      47.976787    0.044503717      524.68123   0.0036441685      122.22404 
  127012    15912    11934     0.28132864      475.06714      1869.1824  0.00016744752      47.976787    0.044508455      523.34745   0.0036842153      152.25287 
  127464    15912    11934     0.28232981      480.02886      1863.2337  0.00017085785       47.99267    0.044512563      521.49411    0.003724262      152.36603 
  127916    15912    11934     0.28333098       484.9472      1857.1399  0.00014725576      48.004583    0.044517175      522.39638   0.0037643088      149.34359 
  128368    15912    11934     0.28433214      490.04369      1851.7441   0.0001543906       48.03238    0.044522281      523.85963   0.0038043556      160.35918 
  128820    15912    11934     0.28533331      495.03172        1845.95  0.00015214186      48.052234    0.044527541      523.67012   0.0038444024      136.91262 
  129272    15912    11934     0.28633448      499.93108      1839.8463  0.00018213272      48.064147    0.044532685      524.61874   0.0038844492      143.69493 
  129724    15912    11934     0.28733565      505.13738       1834.882  0.00017099646      48.072089    0.044537783      522.35471   0.0039244959      154.29567 
  130176    15912    11934     0.28833682      510.22129      1829.4741  0.00017425974      48.087973    0.044542637      522.71318   0.0039645427      157.25835 
  130628    15912    11934     0.28933799      515.26438      1823.9281  0.00021160161      48.111798    0.044547135      521.94762   0.0040045895      144.63884 
  131080    15912    11934     0.29033916      521.04777      1820.9793  0.00019231772      48.127682    0.044550872      520.92295   0.0040446363      148.74488 
  131532    15912    11934     0.29134033      526.15142      1815.6292  0.00016805077      48.151508     0.04455425      523.35312   0.0040846831      155.57701 
  131984    15912    11934      0.2923415      531.76609      1812.0253  0.00016877557      48.159449    0.044558291      526.27808   0.0041247298      138.00041 
  132436    15912    11934     0.29334267      537.61489      1809.1707  0.00017640765      48.191217    0.044562919      524.66867   0.0041647766       152.5717 
  132888    15912    11934     0.29434384      543.42382      1806.1265  0.00017396133      48.226955    0.044567845      524.58337   0.0042048234      136.32835 
  133340    15912    11934     0.29534501      548.55997      1800.8215  0.00016182311      48.226955    0.044573161      524.98913   0.0042448702      150.03292 
  133792    15912    11934     0.29634618      553.92351       1796.257  0.00014131685      48.242839     0.04457882      526.15166    0.004284917      155.10358 
  134244    15912    11934     0.29734735      559.46963      1792.2627  0.00016782751      48.250781    0.044584615      527.35926   0.0043249637      169.64704 
  134696    15912    11934     0.29834852      565.15542      1788.6819  0.00014268585      48.282548    0.044590535      528.21165   0.0043650105      173.93071 
  135148    15912    11934     0.29934969      571.22998      1786.2785  0.00015689007      48.294461    0.044596553       526.2137   0.0044050573      174.85971 
  135600    15912    11934     0.30035086      577.28949      1783.7625  0.00018223277      48.318287    0.044602696      529.26759   0.0044451041      169.49511 
  136052    15912    11934     0.30135203      582.24688       1777.818  0.00017034431      48.318287     0.04460889      525.30303   0.0044851509      171.67107 
  136504    15912    11934      0.3023532      587.18651      1771.8375  0.00018749355      48.346083    0.044615202      528.03024   0.0045251977      154.82757 
  136956    15912    11934     0.30335437      592.01938      1765.5567  0.00020769033      48.365938    0.044620856      525.91951   0.0045652444      171.16997 
  137408    15912    11934     0.30435554      597.28618      1760.5803  0.00019549998      48.381821    0.044626589      525.59848   0.0046052912      155.84635 
  137860    15912    11934      0.3053567      602.40048      1755.1545  0.00022525766      48.409618    0.044632389      526.98768    0.004645338      134.09043 
  138312    15912    11934     0.30635787      607.59343      1749.9605  0.00022731271       48.41756    0.044638566      526.96736   0.0046853848      170.06086 
  138764    15912    11934     0.30735904      611.17959      1740.1917  0.00021304078      48.441385    0.044644627      525.51755   0.0047254316      166.19762 
  139216    15912    11934     0.30836021      614.64519      1730.1873  0.00022853829      48.445356    0.044649554        522.978   0.0047654783      144.88261 
  139668    15912    11934     0.30936138      618.16677      1720.4477  0.00021354485      48.449327    0.044654028      525.62049   0.0048055251      175.59607 
  140120    15912    11934     0.31036255      622.23463      1712.3143    0.000196295      48.453298    0.044659811      527.46686   0.0048455719      173.37029 
  140572    15912    11934     0.31136372       625.6762      1702.5432  0.00016559198      48.469182     0.04466612      526.90113   0.0048856187      147.44248 
  141024    15912    11934     0.31236489      629.21044      1693.1244  0.00016657456      48.469182    0.044672557      527.30417   0.0049256655      166.70709 
  141476    15912    11934     0.31336606      632.71218      1683.7141  0.00018141481      48.485066    0.044678619      526.39594   0.0049657122      150.29312 
  141928    15912    11934     0.31436723       636.1598      1674.2558    0.000173326       48.50492    0.044684364      522.70539    0.005005759      159.01375 
  142380    15912    11934      0.3153684      639.52696      1664.6836  0.00018065029      48.512862    0.044690026      526.65782   0.0050458058      185.47878 
  142832    15912    11934     0.31636957      642.95084      1655.3551  0.00016259196      48.524775    0.044696308      529.55317   0.0050858526        161.645 
  143284    15912    11934     0.31737074      646.32914      1646.0027  0.00015724206       48.54463    0.044702985      527.32604   0.0051258994      158.06595 
  143736    15912    11934     0.31837191      649.81141       1637.005  0.00019058309      48.556542    0.044709567      527.17477   0.0051659461      171.21534 
  144188    15912    11934     0.31937308      653.22825       1627.929  0.00015676775      48.572426     0.04471524      526.33643   0.0052059929      170.17961 
  144640    15912    11934     0.32037425      657.48306      1621.0054  0.00015817398      48.596252    0.044721455      526.82065   0.0052460397      161.90575 
  145092    15912    11934     0.32137542      661.06496      1612.4808  0.00016346909      48.620077    0.044728336       528.0808   0.0052860865      160.03928 
  145544    15912    11934     0.32237659       664.6754      1604.0995  0.00017201151       48.63199    0.044735235      528.37664   0.0053261333      171.79492 
  145996    15912    11934     0.32337776      668.34565      1595.9322  0.00021289554      48.651845    0.044741557      526.99104   0.0053661801      156.56554 
  146448    15912    11934     0.32437893       672.0481      1587.9076  0.00018984543      48.679641    0.044747629      525.16445   0.0054062268      164.33397 
  146900    15912    11934      0.3253801        675.611      1579.6203  0.00025613326      48.687583    0.044754154      526.34528   0.0054462736      177.04991 
  147352    15912    11934     0.32638127      679.12036      1571.2781  0.00018565318      48.707438    0.044760542      526.79639   0.0054863204      164.57103 
  147804    15912    11934     0.32738243      682.67469      1563.1089  0.00018281721      48.711409    0.044767332      528.70906   0.0055263672      188.52644 
  148256    15912    11934      0.3283836      686.20929      1554.9614  0.00017855154      48.743176    0.044774181      529.41602    0.005566414      176.22033 
  148708    15912    11934     0.32938477       689.7398      1546.8706  0.00016676832      48.778915    0.044781324      529.77585   0.0056064607      143.88074 
  149160    15912    11934     0.33038594       693.9343      1540.3183  0.00018455208      48.790827    0.044788727      531.14235   0.0056465075      153.59525 
  149612    15912    11934     0.33138711      697.72702      1532.9166  0.00016723807       48.80274    0.044795929      527.68898   0.0056865543      173.98809 
  150064    15912    11934     0.33238828      701.41123      1525.3293  0.00017142971      48.826566    0.044803014      527.65774   0.0057266011      198.06452 
  150516    15912    11934     0.33338945      704.98087      1517.5497  0.00015438366      48.838479    0.044809931      529.10218   0.0057666479      196.97317 
  150968    15912    11934     0.33439062      708.74699      1510.2467  0.00015291495       48.84642    0.044817139       529.4697   0.0058066946      181.16638 
  151420    15912    11934     0.33539179      712.24806      1502.4332  0.00016380842      48.858333    0.044824693      531.21616   0.0058467414      166.00676 
  151872    15912    11934     0.33639296      715.92454      1495.0446  0.00014780133      48.874217    0.044832252      528.78326   0.0058867882      191.22606 
  152324    15912    11934     0.33739413      719.53691      1487.5736  0.00014737673      48.890101    0.044840249      530.44872    0.005926835      184.83331 
  152776    15912    11934      0.3383953       723.1077      1480.0693   0.0001631757      48.905984    0.044848548      530.40059   0.0059668818      197.04074 
  153228    15912    11934     0.33939647      726.62849      1472.5161  0.00016611854      48.909955    0.044856936      531.69685   0.0060069285      186.09214 
  153680    15912    11934     0.34039764       730.7125      1466.1465  0.00015471935      48.925839    0.044864823      530.99449   0.0060469753      172.92757 
  154132    15912    11934     0.34139881      734.37596      1458.9714  0.00016359204      48.933781    0.044872621      531.14574   0.0060870221      162.62526 
  154584    15912    11934     0.34239998      737.86261      1451.4943  0.00016000865      48.941723    0.044880429      529.06551   0.0061270689      171.63377 
  155036    15912    11934     0.34340115      741.27508      1443.9247  0.00016384445      48.977461    0.044888066      526.69915   0.0061671157      172.34983 
  155488    15912    11934     0.34440232      744.74495      1436.5194    0.000153301      48.977461    0.044895288       526.9329   0.0062071625      190.09975 
  155940    15912    11934     0.34540349      748.22613      1429.1861  0.00015036769      48.993345    0.044902262      528.01876   0.0062472092      173.50966 
  156392    15912    11934     0.34640466      751.70314       1421.894  0.00017195048       49.01717    0.044909523      528.56774    0.006287256      192.30803 
  156844    15912    11934     0.34740583       755.2315      1414.7464  0.00015837546      49.044967    0.044916936      530.67079   0.0063273028      210.50268 
  157296    15912    11934     0.34840699      758.88279      1407.8724  0.00017580664      49.064822    0.044924617      536.48766   0.0063673496      214.31511 
  157748    15912    11934     0.34940816      762.56137      1401.0888  0.00019835077      49.076734    0.044932313      543.93394   0.0064073964      171.51463 
  158200    15912    11934     0.35040933      766.94844      1395.6331  0.00018921515      49.096589     0.04493972      548.02051   0.0064474431      161.38314 
  158652    15912    11934      0.3514105      770.56342       1388.799  0.00019597949      49.104531    0.044947372      538.33315   0.0064874899      216.89235 
  159104    15912    11934     0.35241167      774.13913      1381.9342  0.00021944522      49.116444    0.044955248      514.73648   0.0065275367      197.06951 
  159556    15912    11934     0.35341284      777.71928      1375.1175  0.00020616094      49.140269    0.044963086      538.04463   0.0065675835      180.84602 
  160008    15912    11934     0.35441401      781.21893       1368.199  0.00023364478      49.168066    0.044971457       540.0807   0.0066076303      172.07508 
  160460    15912    11934     0.35541518      784.88097      1361.6034  0.00035327156      49.179979    0.044979957      523.29669    0.006647677      163.53224 
  160912    15912    11934     0.35641635      788.53143       1355.023  0.00023434455       49.18792    0.044988567      534.57518   0.0066877238      188.41094 
  161364    15912    11934     0.35741752      792.13887      1348.4043  0.00022002764      49.195862    0.044996584       539.8664   0.0067277706      157.37835 
  161816    15912    11934     0.35841869      795.71158      1341.7626  0.00023136745      49.223659    0.045004758      530.58512   0.0067678174      179.14971 
  162268    15912    11934     0.35941986      799.32754      1335.2293  0.00019987619      49.243513    0.045013056      530.59039   0.0068078642      180.90276 
  162720    15912    11934     0.36042103      803.65757      1329.9118  0.00021584478      49.263368    0.045021075      535.35974   0.0068479109      194.97984 
  163172    15912    11934      0.3614222      807.22003      1323.3474   0.0002871754      49.279252    0.045029012       512.2975   0.0068879577      215.99137 
  163624    15912    11934     0.36242337      810.57341      1316.4782  0.00027555254      49.291165     0.04503695      548.77584   0.0069280045      217.25972 
  164076    15912    11934     0.36342454      813.95015       1309.687   0.0002834907      49.318961    0.045044692      522.70823   0.0069680513      161.62456 
  164528    15912    11934     0.36442571      817.31379      1302.9139  0.00026853072      49.338816     0.04505113      511.46639   0.0070080981       197.5948 
  164980    15912    11934     0.36542688      820.72642      1296.2569  0.00020663411      49.334845    0.045056762      537.49232   0.0070481449      174.41506 
  165432    15912    11934     0.36642805      824.11921      1289.6055  0.00035828404      49.338816    0.045062914      543.85001   0.0070881916      167.76331 
  165884    15912    11934     0.36742922       827.5516      1283.0521  0.00036104932      49.350729    0.045069828      532.21607   0.0071282384      177.17644 
  166336    15912    11934     0.36843039      830.97065      1276.5131  0.00032577729       49.35867    0.045077524      533.74086   0.0071682852      167.39703 
  166788    15912    11934     0.36943155      834.30213      1269.8755  0.00027314558      49.374554    0.045085704      528.84263    0.007208332      169.62679 
  167240    15912    11934     0.37043272      838.30096      1264.2809  0.00034575045      49.378525    0.045093901      527.96223   0.0072483788      219.02614 
  167692    15912    11934     0.37143389      841.73809      1257.8645   0.0002810218       49.39838    0.045102202      522.80788   0.0072884255      194.25805 
  168144    15912    11934     0.37243506      845.10299      1251.3736  0.00025159026       49.39838    0.045110507      525.27234   0.0073284723      209.62835 
  168596    15912    11934     0.37343623      848.59516      1245.1035  0.00027877089      49.418234    0.045118583      530.90954   0.0073685191      206.11491 
  169048    15912    11934      0.3744374      851.96854      1238.6907  0.00025220293      49.446031    0.045126334      521.86557   0.0074085659      167.89191 
  169500    15912    11934     0.37543857      855.34675      1232.3175  0.00020471614      49.434118    0.045133387      517.86895   0.0074486127      202.85413 
  169952    15912    11934     0.37643974      858.69516      1225.9338  0.00022146669      49.453973    0.045140165       519.3068   0.0074886594      193.69948 
  170404    15912    11934     0.37744091      862.08368      1219.6392  0.00018880352      49.461915    0.045146753      539.61885   0.0075287062      168.54005 
  170856    15912    11934     0.37844208      865.48412       1213.392  0.00018413034      49.461915    0.045153475      512.85955    0.007568753        185.482 
  171308    15912    11934     0.37944325      868.91955      1207.2234  0.00016316188      49.473827    0.045160107      525.48065   0.0076087998      203.17884 
  171760    15912    11934     0.38044442      872.86199      1201.7815  0.00023828843      49.497653    0.045165933      524.09866   0.0076488466       164.6455 
  172212    15912    11934     0.38144559      876.43652      1195.8532  0.00021165601      49.493682     0.04516918      513.06882   0.0076888933      172.90681 
  172664    15912    11934     0.38244676      879.85283      1189.7353  0.00022146858      49.501624    0.045173274      531.57247   0.0077289401      161.93839 
  173116    15912    11934     0.38344793      883.25846       1183.631  0.00025778572      49.505595      0.0451787      540.00679   0.0077689869      150.52234 
  173568    15912    11934      0.3844491      886.62066      1177.4967  0.00025467701      49.517508    0.045184387      514.99154   0.0078090337      155.14903 
  174020    15912    11934     0.38545027      890.05995      1171.4921  0.00023065039       49.52545    0.045189823      507.95621   0.0078490805      160.77849 
  174472    15912    11934     0.38645144      893.46355      1165.4671  0.00025665849      49.541333    0.045195244      528.24441   0.0078891273      154.76283 
  174924    15912    11934     0.38745261      896.91409      1159.5292  0.00021707984      49.557217    0.045200745      534.30923    0.007929174      151.83883 
  175376    15912    11934     0.38845378      900.30676      1153.5421  0.00021062237      49.577072     0.04520661      543.21681   0.0079692208      142.88541 
  175828    15912    11934     0.38945495      903.75219       1147.648  0.00020473223      49.581043    0.045212275      523.06167   0.0080092676      186.97638 
  176280    15912    11934     0.39045611      907.75886      1142.4846  0.00023045792      49.585014    0.045217727      512.99085   0.0080493144      169.50392 
  176732    15912    11934     0.39145728      911.17444      1136.5954  0.00024917752      49.588984    0.045223482      523.19788   0.0080893612      199.90552 
  177184    15912    11934     0.39245845       914.5723      1130.7086  0.00025793227      49.604868    0.045229626      506.70316   0.0081294079      157.70255 
  177636    15912    11934     0.39345962      917.98466       1124.864  0.00025021159      49.604868    0.045234716      538.63848   0.0081694547      162.29378 
  178088    15912    11934     0.39446079       921.3814      1119.0241  0.00022320561      49.608839    0.045239712      540.11788   0.0082095015      100.31438 
  178540    15912    11934     0.39546196       924.7267      1113.1461  0.00021566324      49.616781     0.04524568      544.79786   0.0082495483      147.58026 
  178992    15912    11934     0.39646313      928.12218      1107.3523  0.00023110297      49.620752    0.045252499      544.69549   0.0082895951      116.60703 
  179444    15912    11934      0.3974643      931.50158      1101.5627  0.00019073455      49.636636    0.045259755      533.46956   0.0083296418      160.83126 
  179896    15912    11934     0.39846547      934.90745      1095.8271  0.00025867555      49.652519    0.045266518      546.46426   0.0083696886      176.14265 
  180348    15912    11934     0.39946664      938.33383      1090.1375  0.00038548932      49.684287    0.045273228      534.83302   0.0084097354      115.40387 
  180800    15912    11934     0.40046781      942.29797      1085.0887  0.00042204981      49.704141    0.045280377      540.47976   0.0084497822      140.92258 
  181252    15912    11934     0.40146898      945.67976      1079.3853  0.00038584446      49.716054    0.045287703       536.5389    0.008489829      137.99182 
  181704    15912    11934     0.40247015       949.2117      1073.8737  0.00030654416      49.716054     0.04529496      518.39124   0.0085298758      166.73317 
  182156    15912    11934     0.40347132      952.58314      1068.2006  0.00032905439      49.727967    0.045302209      527.10406   0.0085699225      151.31817 
  182608    15912    11934     0.40447249      955.96655      1062.5622  0.00030308241      49.747822    0.045309762      531.01017   0.0086099693      185.27624 
  183060    15912    11934     0.40547366      959.34303       1056.937  0.00029951633      49.763705    0.045317487      522.88766   0.0086500161      160.68282 
  183512    15912    11934     0.40647483      962.71968      1051.3327   0.0003052492      49.775618    0.045325166      540.01293   0.0086900629       141.3168 
  183964    15912    11934       0.407476      966.15373       1045.811  0.00032801391      49.795473    0.045332819      542.61411   0.0087301097      138.59008 
  184416    15912    11934     0.40847717      969.53364      1040.2503  0.00025964042      49.799444    0.045340172      543.41602   0.0087701564      125.27691 
  184868    15912    11934     0.40947834      972.99595      1034.7971  0.00026952121       49.82724    0.045347437      516.42793   0.0088102032      160.53936 
  185320    15912    11934     0.41047951      976.98342      1029.9155  0.00027885807      49.835182    0.045354071      512.98755     0.00885025      165.54023 
  185772    15912    11934     0.41148067      980.39484        1024.44  0.00026700424      49.870921    0.045360553      525.97367   0.0088902968      187.28684 
  186224    15912    11934     0.41248184      983.83958      1019.0175  0.00029885875      49.886804    0.045366008      522.75411   0.0089303436      126.04276 
  186676    15912    11934     0.41348301       987.2503      1013.5778  0.00023962541      49.906659    0.045371299      537.51768   0.0089703903      151.57837 
  187128    15912    11934     0.41448418      990.64898      1008.1438  0.00020827102      49.918572    0.045376758      515.24928   0.0090104371      170.99472 
  187580    15912    11934     0.41548535        993.989      1002.6687  0.00023208452      49.930485    0.045382722      517.01908   0.0090504839      173.48692 
  188032    15912    11934     0.41648652      997.44795       997.3313  0.00024565025      49.938426    0.045389336      511.89513   0.0090905307      151.72867 
  188484    15912    11934     0.41748769      1000.8189      991.92319  0.00023441896      49.938426    0.045396104      541.16189   0.0091305775      138.64534 
  188936    15912    11934     0.41848886       1004.222      986.56437  0.00025476592      49.966223    0.045403482      515.50264   0.0091706242      175.91662 
  189388    15912    11934     0.41949003      1007.6548      981.25162  0.00029149349      49.990048    0.045411225      526.76399    0.009210671      179.53072 
  189840    15912    11934      0.4204912      1011.6833      976.53008  0.00024914003      49.990048    0.045419382      525.74502   0.0092507178      171.57217 
  190292    15912    11934     0.42149237      1015.0623      971.19307  0.00022752808      50.001961    0.045427593      535.89628   0.0092907646      175.05765 
  190744    15912    11934     0.42249354      1018.4333       965.8653   0.0002069842      50.013874    0.045435632      530.92232   0.0093308114      150.11898 
  191196    15912    11934     0.42349471      1021.8645       960.6108  0.00022352246      50.017845    0.045444078      536.86701   0.0093708582      152.01924 
  191648    15912    11934     0.42449588      1025.2214       955.3026  0.00018475024      50.041671    0.045452655       521.7651   0.0094109049      130.00755 
  192100    15912    11934     0.42549705      1028.6189      950.04844  0.00019732345      50.061525    0.045461347      520.07904   0.0094509517      155.63092 
  192552    15912    11934     0.42649822      1031.9837      944.78004  0.00019318324      50.069467    0.045469986      524.06844   0.0094909985      143.55241 
  193004    15912    11934     0.42749939      1035.4177      939.59039  0.00020522394      50.085351    0.045478933      541.86667   0.0095310453      163.15411 
  193456    15912    11934     0.42850056      1038.7773      934.34862  0.00023373262      50.101235     0.04548814      543.28062   0.0095710921      132.55216 
  193908    15912    11934     0.42950173      1042.2718       929.2427  0.00027415651      50.121089    0.045497498      545.61937   0.0096111388      134.42102 
  194360    15912    11934      0.4305029      1046.3753      924.68831   0.0003016254      50.133002     0.04550674      541.45578   0.0096511856      175.80183 
  194812    15912    11934     0.43150407      1049.8324      919.57151  0.00029428945      50.144915     0.04551548      532.37405   0.0096912324      160.98045 
  195264    15912    11934     0.43250523      1053.3036      914.48065   0.0011955618      50.160799    0.045523901      531.87088   0.0097312792      191.08764 
  195716    15912    11934      0.4335064      1056.7875      909.41392  0.00026965733      50.172711    0.045531782      520.09529    0.009771326      178.92051 
  196168    15912    11934     0.43450757      1060.2745      904.36277  0.00032570212      50.184624    0.045539506      537.43652   0.0098113727      165.51509 
  196620    15912    11934     0.43550874      1063.7091      899.28007  0.00033977536       50.20845    0.045546953      535.11732   0.0098514195      157.92032 
  197072    15912    11934     0.43650991      1067.0803      894.15751  0.00033171332      50.224333    0.045554433      538.56007   0.0098914663       175.9915 
  197524    15912    11934     0.43751108      1070.5199      889.10598  0.00033334519      50.228304    0.045562459      535.85932   0.0099315131      200.89071 
  197976    15912    11934     0.43851225      1073.8596      883.98509  0.00032920173      50.240217    0.045571099      535.81259   0.0099715599      196.23067 
  198428    15912    11934     0.43951342      1077.2501      878.91991  0.00029723128      50.248159    0.045579634      534.73897    0.010011607      162.91323 
  198880    15912    11934     0.44051459      1081.1586      874.28698  0.00028044519      50.268014    0.045588167      548.70125    0.010051653      164.83682 
  199332    15912    11934     0.44151576       1084.481      869.19008  0.00026152434      50.271985    0.045596645      541.50976      0.0100917      162.70735 
  199784    15912    11934     0.44251693      1087.8591       864.1514  0.00030069892      50.283897    0.045604619      542.29552    0.010131747      173.58986 
  200236    15912    11934      0.4435181      1091.2429      859.13031  0.00027082019      50.283897    0.045611414      534.82958    0.010171794      145.69981 
  200688    15912    11934     0.44451927      1094.6403      854.13262   0.0002339921      50.287868    0.045617442      518.69351    0.010211841      185.62651 
  201140    15912    11934     0.44552044      1098.0525      849.15898  0.00034753727       50.29581    0.045624009      525.39054    0.010251887      162.71549 
  201592    15912    11934     0.44652161      1101.4485      844.18497  0.00024612336      50.307723    0.045630204      521.04886    0.010291934      181.82994 
  202044    15912    11934     0.44752278      1104.8637      839.23785   0.0002377854      50.323607    0.045637081      522.61969    0.010331981      210.59412 
  202496    15912    11934     0.44852395      1108.2139      834.25357   0.0002443766       50.33949    0.045644594      534.41524    0.010372028      178.65349 
  202948    15912    11934     0.44952512      1111.6102      829.31631  0.00025111003      50.347432    0.045652303      523.09421    0.010412074      166.06705 
  203400    15912    11934     0.45052629      1115.5943      824.82544  0.00030540685      50.367287    0.045660075      522.25131    0.010452121      199.21442 
  203852    15912    11934     0.45152746      1118.9731      819.89489  0.00031635826      50.375229    0.045667663       525.7511    0.010492168      171.81434 
  204304    15912    11934     0.45252863      1122.3536      814.97742  0.00028162633      50.403025    0.045674529      525.14552    0.010532215      165.13246 
  204756    15912    11934     0.45352979      1125.7569        810.088  0.00025808164      50.406996    0.045681249      525.71497    0.010572262      191.49928 
  205208    15912    11934     0.45453096       1129.166      805.21391  0.00031546018       50.42288    0.045687858      520.14545    0.010612308      170.06625 
  205660    15912    11934     0.45553213      1132.6878      800.43046  0.00026753467      50.434793    0.045694781      530.53962    0.010652355      125.90735 
  206112    15912    11934      0.4565333      1136.1827      795.63763  0.00024322427      50.446706    0.045702372      531.78536    0.010692402      185.53731 
  206564    15912    11934     0.45753447      1139.6624      790.84394  0.00026600718      50.470531    0.045710309      526.94704    0.010732449      168.35757 
  207016    15912    11934     0.45853564      1143.3096      786.17522  0.00023512452      50.482444    0.045718351      529.89119    0.010772495      180.60319 
  207468    15912    11934     0.45953681      1146.9472      781.50753  0.00023858201      50.498328    0.045726029      533.75002    0.010812542       153.1039 
  207920    15912    11934     0.46053798      1151.2337      777.28555  0.00028369365      50.526124    0.045733737      530.36141    0.010852589      216.98781 
  208372    15912    11934     0.46153915      1154.6406      772.47457  0.00029613568      50.538037    0.045741196      533.99885    0.010892636      168.75833 
  208824    15912    11934     0.46254032      1158.0358      767.66622   0.0003151425      50.553921    0.045748652      530.37959    0.010932683      167.72924 
  209276    15912    11934     0.46354149      1161.4348       762.8706  0.00030174257      50.565833    0.045756404      528.50143    0.010972729      167.00014 
  209728    15912    11934     0.46454266      1164.9364      758.15199   0.0002466498      50.581717     0.04576435      536.17003    0.011012776      158.84954 
  210180    15912    11934     0.46554383      1168.5225       753.4966  0.00031279798      50.585688    0.045772375      535.00449    0.011052823      156.26714 
  210632    15912    11934       0.466545      1172.3704      749.01622  0.00031125257      50.589659    0.045780242      529.78641     0.01109287      181.09477 
  211084    15912    11934     0.46754617       1176.192      744.52377  0.00041936171      50.613485    0.045787455      524.01437    0.011132917      203.71271 
  211536    15912    11934     0.46854734      1179.8987      739.96404  0.00028917877      50.621426     0.04579392      528.70302    0.011172963      155.12349 
  211988    15912    11934     0.46954851      1183.2655      735.19928   0.0002709065      50.633339     0.04580119      528.88182     0.01121301       202.4988 
  212440    15912    11934     0.47054968      1187.2906      730.84965  0.00031093693      50.649223    0.045808569      528.70934    0.011253057      214.73064 
  212892    15912    11934     0.47155085      1190.7178      726.13766  0.00037871402      50.673049    0.045815774      532.41649    0.011293104      166.89673 
  213344    15912    11934     0.47255202      1194.2336      721.48831  0.00033414698       50.67702    0.045823224      533.07961     0.01133315      194.47522 
  213796    15912    11934     0.47355319      1197.6274      716.77394  0.00027364237      50.700845    0.045830998      535.45571    0.011373197      153.33706 
  214248    15912    11934     0.47455435      1201.0153      712.06532  0.00031292439        50.7207    0.045839022       527.7963    0.011413244      183.14841 
  214700    15912    11934     0.47555552      1204.4016      707.36501  0.00052755691      50.736583    0.045847497       527.8716    0.011453291      197.36824 
  215152    15912    11934     0.47655669      1207.7901      702.67516  0.00033705599      50.756438    0.045855589      521.46731    0.011493338      219.30002 
  215604    15912    11934     0.47755786      1211.2233      698.02007  0.00053088618      50.768351    0.045863047      527.11842    0.011533384      175.87465 
  216056    15912    11934     0.47855903      1214.6086      693.34606  0.00061796615       50.76438    0.045867403      518.73639    0.011573431      161.16925 
  216508    15912    11934      0.4795602      1218.0864       688.7333  0.00039643833       50.76438    0.045870301      518.09992    0.011613478      137.85947 
  216960    15912    11934     0.48056137      1222.1108      684.43445  0.00041965466      50.788206    0.045874533      519.81924    0.011653525      151.70656 
  217412    15912    11934     0.48156254      1225.5172      679.79468  0.00036053011       50.80806    0.045880476      526.64761    0.011693571      149.51866 
  217864    15912    11934     0.48256371      1228.8844      675.14176  0.00033906399      50.819973    0.045887138        528.893    0.011733618      145.67036 
  218316    15912    11934     0.48356488      1232.2785      670.51225  0.00034715544      50.835857    0.045893751      524.02748    0.011773665      191.37177 
  218768    15912    11934     0.48456605      1235.6588      665.88368  0.00041909836      50.835857    0.045900754      528.57645    0.011813712      191.94714 
  219220    15912    11934     0.48556722      1239.0303      661.25882  0.00037790499       50.85174     0.04590814      530.03499    0.011853759      197.82448 
  219672    15912    11934     0.48656839      1242.5171      656.70338  0.00033226484      50.855711    0.045915575      527.38692    0.011893805      158.98682 
  220124    15912    11934     0.48756956      1245.9066      652.10414  0.00038291122      50.863653    0.045923082      525.14029    0.011933852      173.06613 
  220576    15912    11934     0.48857073      1249.4057      647.56982  0.00044156677      50.863653    0.045930065      525.40021    0.011973899      174.96036 
  221028    15912    11934      0.4895719      1252.8086      642.99304  0.00045621792      50.883508     0.04593524      522.94535    0.012013946      119.00285 
  221480    15912    11934     0.49057307      1256.8506      638.74885   0.0004934117      50.903363    0.045938669      518.08763    0.012053992       129.9417 
  221932    15912    11934     0.49157424      1260.2582      634.18677  0.00040326248      50.895421    0.045940678       517.3726    0.012094039       112.6438 
  222384    15912    11934     0.49257541      1263.6774      629.63807  0.00043535461      50.907334    0.045942285      515.49364    0.012134086      121.44785 
  222836    15912    11934     0.49357658      1267.0671      625.08226  0.00042422468      50.919246     0.04594367       516.0024    0.012174133      102.31721 
  223288    15912    11934     0.49457775      1270.4262      620.51912  0.00033718522      50.931159    0.045945307      515.04552     0.01221418      119.81292 
  223740    15912    11934     0.49557891      1273.7757      615.95924  0.00030959011      50.943072    0.045948478      522.58464    0.012254226      115.39225 
  224192    15912    11934     0.49658008      1277.1791      611.43307   0.0002667264      50.951014    0.045951811      519.84356    0.012294273      118.47842 
  224644    15912    11934     0.49758125      1280.5472      606.89743  0.00021989575      50.974839    0.045955631      524.72185     0.01233432      110.45854 
  225096    15912    11934     0.49858242      1283.9053      602.36466  0.00024112243      50.986752    0.045960981      522.81118    0.012374367      135.63671 
  225548    15912    11934     0.49958359      1287.3005      597.85667  0.00028304835      51.014549    0.045966944      531.56424    0.012414414      116.81696 
  226000    15912    11934     0.50058476      1291.2605      593.61551  0.00023788622      51.022491    0.045973684       527.9106     0.01245446      145.57299 
  226452    15912    11934     0.50158593      1294.6055      589.09633   0.0002892615      51.022491    0.045980958      526.95993    0.012494507      147.39529 
  226904    15912    11934      0.5025871      1297.9868      584.60096  0.00030400759      51.026461    0.045988223      527.60402    0.012534554      144.76273 
  227356    15912    11934     0.50358827      1301.3376      580.09909  0.00027206678      51.042345    0.045995395      531.38224    0.012574601      134.04798 
  227808    15912    11934     0.50458944      1304.7068      575.61269  0.00030694433      51.042345    0.046003056      533.29264    0.012614647       132.6613 
  228260    15912    11934     0.50559061      1308.1348      571.15899  0.00046118046      51.058229    0.046010049      524.80354    0.012654694      140.42727 
  228712    15912    11934     0.50659178      1311.5504      566.70643  0.00083208443      51.074113    0.046015816      524.40867    0.012694741      116.54766 
  229164    15912    11934     0.50759295       1314.946      562.25184  0.00037600409      51.066171    0.046020297      521.97853    0.012734788      136.03432 
  229616    15912    11934     0.50859412      1318.3233      557.79613  0.00037589708      51.089996    0.046025791      529.40961    0.012774835      149.41814 
  230068    15912    11934     0.50959529      1321.7235      553.35677   0.0003508783       51.10588    0.046032368      530.80361    0.012814881      136.52444 
  230520    15912    11934     0.51059646      1325.7055      549.16484  0.00039976506       51.10588    0.046038816      528.16982    0.012854928      131.65102 
  230972    15912    11934     0.51159763      1329.0487      544.71247  0.00030705591      51.117793    0.046045393      525.26041    0.012894975      154.38768 
  231424    15912    11934      0.5125988      1332.3899      540.26609  0.00030555395      51.137648    0.046052127      530.78835    0.012935022      127.12038 
  231876    15912    11934     0.51359997      1335.7898      535.85011  0.00032981349      51.129706    0.046059071      527.53023    0.012975068      155.33843 
  232328    15912    11934     0.51460114      1339.1429      531.42185  0.00027975083      51.137648    0.046066115      526.48703    0.013015115      154.31095 
  232780    15912    11934     0.51560231      1342.5503      527.02146  0.00047186873      51.133677    0.046072897      531.77956    0.013055162      119.83262 
  233232    15912    11934     0.51660347      1345.9096      522.60845  0.00041703804      51.141618    0.046079653      532.61332    0.013095209      138.71534 
  233684    15912    11934     0.51760464      1349.3014      518.21437  0.00030695672      51.161473    0.046086332      529.62673    0.013135256      155.96848 
  234136    15912    11934     0.51860581      1352.7135      513.83411  0.00028875647      51.173386    0.046092499      526.43149    0.013175302      161.18519 
  234588    15912    11934     0.51960698      1356.2337       509.5003  0.00029021396      51.193241     0.04609896      529.89276    0.013215349      142.56689 
  235040    15912    11934     0.52060815      1360.1918      505.33411  0.00028235356      51.205153    0.046105729      527.48552    0.013255396      145.96589 
  235492    15912    11934     0.52160932      1363.5793      500.95954  0.00026984492      51.225008    0.046112737      531.83592    0.013295443      122.96444 
  235944    15912    11934     0.52261049      1367.0076       496.6057  0.00031418364       51.23295    0.046119743      527.39908    0.013335489      136.46903 
  236396    15912    11934     0.52361166       1370.353      492.22767  0.00032074214      51.252804    0.046126743      529.78141    0.013375536      183.83471 
  236848    15912    11934     0.52461283      1373.7085      487.85935  0.00027892793       51.27663    0.046134203      529.94976    0.013415583      185.42264 
  237300    15912    11934       0.525614      1377.1521        483.528  0.00036174653      51.292514    0.046141747      530.46942     0.01345563      138.81509 
  237752    15912    11934     0.52661517      1380.5697      479.19289  0.00032591221      51.308398    0.046149321      527.42036    0.013495677      169.27104 
  238204    15912    11934     0.52761634      1384.0097       474.8709  0.00025826412      51.312368    0.046156758      528.62188    0.013535723      154.83454 
  238656    15912    11934     0.52861751      1387.3747      470.52871  0.00035151877      51.336194    0.046164577      532.42256     0.01357577      135.62866 
  239108    15912    11934     0.52961868      1390.7486       466.1952  0.00028609531      51.352078    0.046172926      531.40088    0.013615817      149.18737 
  239560    15912    11934     0.53061985      1394.7587      462.07811  0.00029053702      51.379874    0.046181669      528.60048    0.013655864      189.20626 
  240012    15912    11934     0.53162102      1398.1744      457.76705  0.00029329438      51.383845    0.046189466      535.38104     0.01369591      157.63289 
  240464    15912    11934     0.53262219      1401.6362       453.4761  0.00028562695      51.399729    0.046197487      529.54309    0.013735957      172.74654 
  240916    15912    11934     0.53362336      1404.9899      449.15543  0.00027411484      51.395758    0.046205421      533.64684    0.013776004      136.91881 
  241368    15912    11934     0.53462453      1408.3473      444.84156  0.00029657236      51.391787    0.046213235      529.99425    0.013816051       161.1656 
  241820    15912    11934      0.5356257      1411.7262      440.53988   0.0003323308      51.411642    0.046220248      525.40347    0.013856098      165.87486 
  242272    15912    11934     0.53662687      1415.1406       436.2545  0.00031076076      51.419584    0.046226294      526.16463    0.013896144      172.47908 
  242724    15912    11934     0.53762803        1418.54      431.96953  0.00029119937      51.435467    0.046232322      530.97096    0.013936191      169.88804 
  243176    15912    11934      0.5386292      1421.8884      427.67431  0.00030195224      51.455322     0.04623933      531.12948    0.013976238      149.42175 
  243628    15912    11934     0.53963037      1425.4815      423.45718  0.00033307174      51.475177    0.046246832      533.44891    0.014016285      145.22795 
  244080    15912    11934     0.54063154       1429.817      419.46142  0.00025371218      51.487089    0.046254293      530.56762    0.014056332      130.37122 
  244532    15912    11934     0.54163271      1433.1855      415.18359  0.00027213636      51.510915    0.046261814      527.07591    0.014096378      164.80946 
  244984    15912    11934     0.54263388      1436.5746      410.91677  0.00031318497      51.546653    0.046269416       533.2773    0.014136425      181.09369 
  245436    15912    11934     0.54363505      1439.9196       406.6425  0.00030626364      51.562537    0.046276754      524.03087    0.014176472      190.41309 
  245888    15912    11934     0.54463622      1443.3075      402.38541  0.00038833579      51.594305    0.046284235      526.87027    0.014216519      169.07773 
  246340    15912    11934     0.54563739       1446.715       398.1386  0.00031396076      51.614159    0.046291987      525.97375    0.014256565      185.48006 
  246792    15912    11934     0.54663856      1450.1032      393.89125  0.00035824557      51.630043    0.046299733      526.51405    0.014296612      158.94538 
  247244    15912    11934     0.54763973      1453.5154      389.65512  0.00035535484      51.641956     0.04630678      528.27855    0.014336659      177.26502 
  247696    15912    11934      0.5486409      1456.9108      385.41916  0.00035465848      51.641956    0.046313258      530.24799    0.014376706      163.07294 
  248148    15912    11934     0.54964207       1460.293      381.18441  0.00037994018      51.649898    0.046319641      530.44333    0.014416753      149.83933 
  248600    15912    11934     0.55064324      1464.2939      377.11373  0.00032198437      51.657839    0.046325559      526.67356    0.014456799      173.34172 
  249052    15912    11934     0.55164441      1467.7618      372.90801  0.00032112177       51.66181    0.046330789      525.52504    0.014496846      162.73481 
  249504    15912    11934     0.55264558      1471.2234      368.70478  0.00033729474      51.677694    0.046336282      528.56642    0.014536893      152.17117 
  249956    15912    11934     0.55364675      1474.7401      364.51923  0.00031837601      51.693578     0.04634206      526.83229     0.01457694      170.38482 
  250408    15912    11934     0.55464792      1478.2841      360.34402  0.00023746402      51.705491    0.046348565      526.25615    0.014616986      174.08856 
  250860    15912    11934     0.55564909      1481.7327      356.14932  0.00033450953      51.717403    0.046355455      524.45867    0.014657033      162.26095 
  251312    15912    11934     0.55665026      1485.1039      351.94034  0.00030146322      51.741229     0.04636273      532.70085     0.01469708      167.17074 
  251764    15912    11934     0.55765143       1488.511       347.7443  0.00030780908      51.753142    0.046370213      527.68492    0.014737127      210.25296 
  252216    15912    11934     0.55865259      1491.8811      343.54402  0.00037112489      51.765055    0.046377262      528.38524    0.014777174       187.1682 
  252668    15912    11934     0.55965376      1495.3314      339.36644  0.00034852822      51.776967    0.046384026      528.10412     0.01481722      184.33683 
  253120    15912    11934     0.56065493       1499.317      335.31248  0.00031085648      51.784909    0.046391272      523.03454    0.014857267      192.22974 
  253572    15912    11934      0.5616561      1502.6751      331.12062  0.00033130886      51.804764    0.046398879      530.22412    0.014897314      183.59235 
  254024    15912    11934     0.56265727      1506.0431      326.93539  0.00031067761      51.816677    0.046406449      530.52135    0.014937361      127.68219 
  254476    15912    11934     0.56365844      1509.4266      322.75783  0.00030030702      51.824619    0.046414076       526.9533    0.014977407      155.52753 
  254928    15912    11934     0.56465961      1512.7843      318.57908  0.00029863983      51.852415    0.046421809      522.55329    0.015017454      149.58423 
  255380    15912    11934     0.56566078      1516.2187      314.42059  0.00028267856      51.880212    0.046429576      526.36291    0.015057501      147.59292 
  255832    15912    11934     0.56666195      1519.7255      310.28075  0.00031468257      51.888153    0.046436886      533.72318    0.015097548      164.00702 
  256284    15912    11934     0.56766312      1523.1107      306.11981  0.00028573808      51.904037    0.046444288      530.66558    0.015137595      186.83999 
  256736    15912    11934     0.56866429      1526.4932      301.96242  0.00033604828      51.931834    0.046452013      524.00772    0.015177641      216.30392 
  257188    15912    11934     0.56966546      1529.8266      297.79955  0.00037892097      51.939776    0.046460132      525.05897    0.015217688      160.16754 
  257640    15912    11934     0.57066663      1533.8142      293.76633  0.00028425896      51.951688    0.046467982      526.10966    0.015257735      195.54467 
  258092    15912    11934      0.5716678      1537.2246      289.62461  0.00034658201      51.983456    0.046475713      524.45441    0.015297782      201.73998 
  258544    15912    11934     0.57266897      1540.6592      285.49118  0.00030366733      51.987427     0.04648333      529.29864    0.015337829      140.82542 
  258996    15912    11934     0.57367014      1544.1042      281.36329  0.00038748597      51.991398    0.046490946      528.87455    0.015377875      141.35439 
  259448    15912    11934     0.57467131      1547.4628      277.22348  0.00028185376      51.995369    0.046499313      535.39528    0.015417922       180.8748 
  259900    15912    11934     0.57567248      1550.9833      273.11621  0.00040490192      52.019194    0.046508392      523.99292    0.015457969      173.80133 
  260352    15912    11934     0.57667365      1554.4089      268.99556  0.00034846243       52.04302    0.046517874      536.76957    0.015498016      143.09518 
  260804    15912    11934     0.57767482       1557.865      264.88369  0.00031358552      52.058903    0.046527485      532.10737    0.015538062       151.5926 
  261256    15912    11934     0.57867599      1561.3052      260.77252  0.00035465131      52.066845     0.04653708      536.61533    0.015578109      182.12092 
  261708    15912    11934     0.57967715      1564.7507      256.66566  0.00036665233      52.090671    0.046546683       533.2927    0.015618156      172.50285 
  262160    15912    11934     0.58067832      1568.9056      252.67644  0.00033224763      52.106555    0.046556137       528.6943    0.015658203      185.92086 
  262612    15912    11934     0.58167949      1572.4562      248.59084  0.00042819383      52.122438    0.046565323      531.89794     0.01569825      187.96057 
  263064    15912    11934     0.58268066      1575.8842      244.48895   0.0004318937      52.142293    0.046574452      532.57304    0.015738296      160.10634 
  263516    15912    11934     0.58368183      1579.2866      240.38656  0.00041050268      52.162148    0.046583272      530.96713    0.015778343      161.84734 
  263968    15912    11934       0.584683      1582.6599      236.28338   0.0003458062      52.178031    0.046592551      532.86954     0.01581839      197.11947 
  264420    15912    11934     0.58568417      1586.0131      232.18095   0.0010008681      52.185973    0.046601636      526.67159    0.015858437      182.75391 
  264872    15912    11934     0.58668534       1589.578      228.11268  0.00035461627      52.193915    0.046610244      525.96421    0.015898483      188.01198 
  265324    15912    11934     0.58768651      1592.9396      224.01834  0.00039778964      52.241566    0.046619034      536.39409     0.01593853      182.73582 
  265776    15912    11934     0.58868768      1596.3213      219.93045  0.00034522251       52.25745    0.046627868      525.16691    0.015978577      205.37734 
  266228    15912    11934     0.58968885      1599.7598      215.85374  0.00038489753      52.277305    0.046636957      533.28605    0.016018624      176.59357 
  266680    15912    11934     0.59069002      1603.8785      211.87008  0.00037557197      52.281276    0.046646078      525.68192    0.016058671      217.81125 
  267132    15912    11934     0.59169119      1607.2882      207.79407  0.00035142264      52.297159    0.046655023      531.32488    0.016098717      152.51903 
  267584    15912    11934     0.59269236      1610.7087      203.72275  0.00034992909      52.305101    0.046663669      529.93717    0.016138764      123.93943 
  268036    15912    11934     0.59369353      1614.0771       199.6482  0.00037745682      52.320985    0.046671672      527.47446    0.016178811      192.15228 
  268488    15912    11934      0.5946947      1617.4954      195.58318  0.00038309276       52.34084    0.046679723      529.12706    0.016218858      174.50153 
  268940    15912    11934     0.59569587      1620.9877      191.53008  0.00032219987       52.34481    0.046688026      526.77267    0.016258904      162.94491 
  269392    15912    11934     0.59669704       1624.665      187.50109  0.00034116071      52.352752    0.046696633      533.98254    0.016298951      176.03614 
  269844    15912    11934     0.59769821       1628.411      183.48156  0.00039125697      52.356723    0.046705319      522.35236    0.016338998      181.44357 
  270296    15912    11934     0.59869938      1632.1847      179.46642  0.00036389862      52.388491    0.046714001      522.18003    0.016379045      177.45717 
  270748    15912    11934     0.59970055      1635.8449      175.44028   0.0003611994      52.396433    0.046722746      529.44624    0.016419092       178.6683 
  271200    15912    11934     0.60070171      1640.1031      171.47844  0.00036735188      52.412316    0.046731062      533.13812    0.016459138      187.60455 
  271652    15912    11934     0.60170288      1643.6928      167.44707  0.00041449533      52.455997    0.046739467      530.92645    0.016499185      154.64632 
  272104    15912    11934     0.60270405      1647.3811      163.42762  0.00041607792      52.459967    0.046747865      530.61648    0.016539232      158.17702 
  272556    15912    11934     0.60370522      1650.9402      159.39729  0.00049762917      52.459967    0.046755535      521.95112    0.016579279      195.61277 
  273008    15912    11934     0.60470639       1654.355      155.35568  0.00048447074       52.47188     0.04676231      528.00248    0.016619326      153.88113 
  273460    15912    11934     0.60570756      1657.8141      151.32113  0.00041243517      52.467909    0.046769072      523.20032    0.016659372      138.53365 
  273912    15912    11934     0.60670873      1661.2625      147.28839  0.00041533658      52.491735    0.046775359       518.7415    0.016699419      178.47146 
  274364    15912    11934      0.6077099      1664.6949      143.25707  0.00043636927      52.527473    0.046781939      521.07461    0.016739466      191.67275 
  274816    15912    11934     0.60871107      1668.1667       139.2319  0.00038869889      52.543357    0.046789232      522.65509    0.016779513      181.02442 
  275268    15912    11934     0.60971224      1671.6727      135.21212  0.00036443841       52.55527     0.04679668      528.80516    0.016819559      182.93973 
  275720    15912    11934     0.61071341      1675.9144      131.25241  0.00037000963       52.55527    0.046804803      532.13605    0.016859606      167.94239 
  276172    15912    11934     0.61171458      1679.4528      127.23808  0.00043202274      52.571154    0.046813176      541.34771    0.016899653      175.71601 
  276624    15912    11934     0.61271575      1683.1172      123.23522  0.00043237694      52.591008    0.046821596      534.73406      0.0169397      206.13986 
  277076    15912    11934     0.61371692      1686.7542      119.23202  0.00039612623      52.606892    0.046829902       527.9445    0.016979747      222.61574 
  277528    15912    11934     0.61471809      1690.4463      115.23431  0.00046264866      52.614834    0.046838892      533.56353    0.017019793      237.26112 
  277980    15912    11934     0.61571926       1693.975      111.22729  0.00047538819      52.630718    0.046848027      535.86387     0.01705984      203.58322 
  278432    15912    11934     0.61672043      1697.5163      107.22332  0.00035822196      52.634688     0.04685731      536.75453    0.017099887      198.65818 
  278884    15912    11934      0.6177216      1701.0859      103.22322  0.00037108687      52.650572     0.04686657      533.09093    0.017139934      185.98053 
  279336    15912    11934     0.61872277      1704.6147      99.222749  0.00038607985      52.662485    0.046876008      536.77909     0.01717998      234.76823 
  279788    15912    11934     0.61972394      1708.1867      95.226888  0.00039410709      52.674398    0.046885678      530.01586    0.017220027      202.46397 
  280240    15912    11934     0.62072511      1712.3726      91.265713  0.00048486196      52.686311    0.046895298      537.24639    0.017260074      190.18925 
  280692    15912    11934     0.62172627      1715.7784       87.26382  0.00039479729      52.698223    0.046904458      529.66311    0.017300121      206.80552 
  281144    15912    11934     0.62272744      1719.1244      83.261784  0.00041503397      52.706165    0.046913837      535.37209    0.017340168      181.74288 
  281596    15912    11934     0.62372861      1722.5405      79.265997  0.00052047951      52.722049    0.046923512       545.6339    0.017380214      175.50079 
  282048    15912    11934     0.62472978      1725.9588      75.272974  0.00044697034       52.72602    0.046933481      535.90475    0.017420261      244.74464 
  282500    15912    11934     0.62573095      1729.3542       71.28164  0.00047954803      52.733962      0.0469437      529.47618    0.017460308      198.73478 
  282952    15912    11934     0.62673212       1732.783      67.294334  0.00046386803      52.761758    0.046953717      541.32311    0.017500355      148.02058 
  283404    15912    11934     0.62773329      1736.1783      63.308352   0.0004223121      52.773671     0.04696373      532.97304    0.017540401      207.32432 
  283856    15912    11934     0.62873446      1739.5487      59.324215  0.00045122638      52.781613    0.046973602      530.85115    0.017580448      198.20582 
  284308    15912    11934     0.62973563      1743.0377      55.346634  0.00052482835      52.821322    0.046983262      537.17941    0.017620495      208.87472 
  284760    15912    11934      0.6307368      1747.3531      51.395573  0.00049949598      52.825293    0.046992839      537.91017    0.017660542      155.47705 
  285212    15912    11934     0.63173797      1750.9654      47.423823  0.00046494705      52.845148    0.047002385      526.68089    0.017700589      146.15167 
  285664    15912    11934     0.63273914      1754.6365      43.455153  0.00043794021      52.849119    0.047012198      530.92703    0.017740635      154.98807 
  286116    15912    11934     0.63374031      1758.0687      39.482455  0.00048347701      52.865002     0.04702211      534.69256    0.017780682      179.51206 
  286568    15912    11934     0.63474148      1761.7537      35.517285  0.00046913123      52.872944    0.047032077      532.95272    0.017820729      156.50015 
  287020    15912    11934     0.63574265      1765.5328      31.555053  0.00043336304      52.884857    0.047041766      532.79185    0.017860776      171.98513 
  287472    15912    11934     0.63674382      1769.0191      27.589073  0.00045272809      52.900741    0.047051486      528.14938    0.017900823      158.63132 
  287924    15912    11934     0.63774499      1772.4454      23.624436  0.00046717219      52.916625    0.047061557      528.96033    0.017940869      179.23332 
  288376    15912    11934     0.63874616       1775.957       19.66314  0.00046604264       52.94045    0.047071859      526.14317    0.017980916      162.62204 
  288828    15912    11934     0.63974733      1779.5314      15.704398  0.00048464496      52.964276    0.047082171      538.35297    0.018020963      175.22526 
  289280    15912    11934      0.6407485      1783.6474      11.750928  0.00040730264      52.988101    0.047092593      532.82516     0.01806101      196.36407 
  289732    15912    11934     0.64174967      1787.1175      7.7939221  0.00053800784       53.02384    0.047103136      532.40117    0.018101056      182.82974 
  290184    15912    11934     0.64275083      1790.5397      3.8389633  0.00050392473      53.047665    0.047113479      535.74107    0.018141103      246.70214 
  290623    15912    11934     0.64372321      1793.9104              0  0.00050738315      53.075462    0.047123303      541.55413    0.018179998      157.35945 
Loop time of 1793.91 on 1 procs for 205194 steps with 15912 atoms, finish time Fri Nov  2 10:11:32 2018


Pair  time (%) = 837.439 (46.6823)
Bond  time (%) = 529.026 (29.4901)
Neigh time (%) = 6.74182 (0.375817)
Comm  time (%) = 1.92757 (0.107451)
Outpt time (%) = 28.8682 (1.60924)
Other time (%) = 389.908 (21.7351)

Nlocal:    15912 ave 15912 max 15912 min
Histogram: 1 0 0 0 0 0 0 0 0 0
Nghost:    0 ave 0 max 0 min
Histogram: 1 0 0 0 0 0 0 0 0 0
Neighs:    67892 ave 67892 max 67892 min
Histogram: 1 0 0 0 0 0 0 0 0 0

Total # of neighbors = 67892
Ave neighs/atom = 4.26672
Ave special neighs/atom = 3
Neighbor list builds = 322
Dangerous builds = 0
write_restart restarts/restart2.liggghts
