LIGGGHTS (Version LIGGGHTS-PUBLIC 3.7.0, compiled 2018-11-01-09:41:02 by mschramm, git commit f0fe0efec961018203625c692cfdef436fc4d2e3)
#### Writen for LIGGGHTS 3.7.0 with bond ##########################################################

### Material Independent Properties
variable particle_diameter             equal 2.83e-3    # particles diameter in meters
variable bond_out_diameter             equal 2.83e-3    # fiber outer diameter in meters
variable bond_in_diameter              equal 0.0        # fiber inner diameter in meters
variable bond_length                   equal 2.83e-3    # distance, in meters, between two particles in bond
variable bond_damp_type                equal 3          # Use Global Force Damping
variable bond_damp_val                 equal 0.001      # NA
variable particle_density              equal 2500.0     # kg/m3
variable fiber_contact_youngs_modulus  equal 1.4e9      # Pa
variable wall_contact_youngs_modulus   equal 180.0e9    # Pa
variable bond_youngs_modulus           equal 1.4e9      # Pa
variable particle_poissons_ratio       equal 0.3        # NA
variable wall_poissons_ratio           equal 0.3        # NA
variable ke_tol                        equal 1.0e-4     # Energy that we will run the simulation to obtain
variable coef_res_pp                   equal 0.500      # particle-particle coefficient of restitution
variable coef_res_pw                   equal 0.300      # particle-wall coefficient of restitution
variable coef_res_ww                   equal 0.500      # wall-wall coefficient of restitution
variable coef_fri_pp                   equal 0.400      # particle-particle coefficient of friction
variable coef_fri_pw                   equal 0.600      # particle-wall coefficient of friction
variable coef_fri_ww                   equal 0.200      # wall-wall coefficient of friction
variable plung_speed                   equal 0.100      # Speed of plunger
variable plung_dist                    equal 0.025      # Distance the plunger will travel
### Simulation Independent Parameters
variable restart_time                  equal 1.0e-2     # how often we write a restart file
variable fileprint_time                equal 1.0e-2     # how often we print to the file in seconds
variable thermo_time                   equal 1.0e-3     # how often we print to the screen in seconds
variable output_time                   equal 1.0e-3     # how often data is writen to csv file in seconds

### Material Dependent Properties
variable particle_radius               equal 0.5*${particle_diameter}
variable particle_radius               equal 0.5*0.00283
variable bond_shear_modulus            equal ${bond_youngs_modulus}/(2.0*(1.0+${particle_poissons_ratio}))
variable bond_shear_modulus            equal 1400000000/(2.0*(1.0+${particle_poissons_ratio}))
variable bond_shear_modulus            equal 1400000000/(2.0*(1.0+0.3))
variable bond_out_per                  equal ${bond_out_diameter}/${particle_diameter}
variable bond_out_per                  equal 0.00283/${particle_diameter}
variable bond_out_per                  equal 0.00283/0.00283
variable bond_in_per                   equal ${bond_in_diameter}/${particle_diameter}
variable bond_in_per                   equal 0/${particle_diameter}
variable bond_in_per                   equal 0/0.00283

### Calculate dt using the bond model
variable r2                            equal ${particle_radius}*${particle_radius}
variable r2                            equal 0.001415*${particle_radius}
variable r2                            equal 0.001415*0.001415
variable r3                            equal ${r2}*${particle_radius}
variable r3                            equal 2.002225e-06*${particle_radius}
variable r3                            equal 2.002225e-06*0.001415
variable K                             equal ${bond_youngs_modulus}*PI*${r2}/${bond_length}
variable K                             equal 1400000000*PI*${r2}/${bond_length}
variable K                             equal 1400000000*PI*2.002225e-06/${bond_length}
variable K                             equal 1400000000*PI*2.002225e-06/0.00283
variable m                             equal 4.0*PI*${r3}*${particle_density}/3.0
variable m                             equal 4.0*PI*2.833148375e-09*${particle_density}/3.0
variable m                             equal 4.0*PI*2.833148375e-09*2500/3.0
variable w                             equal sqrt($K/$m)
variable w                             equal sqrt(3111747.52338069/$m)
variable w                             equal sqrt(3111747.52338069/2.96686604047662e-05)
if (${bond_damp_type}==3) then 	"variable dt                   equal 0.95/((1.1695+0.41628*${bond_damp_val})*$w)" else 	"variable dt                   equal 0.95/((1.0+2.9392*${bond_damp_val})*$w)"
if (3==3) then 	"variable dt                   equal 0.95/((1.1695+0.41628*${bond_damp_val})*$w)" else 	"variable dt                   equal 0.95/((1.0+2.9392*${bond_damp_val})*$w)"
variable dt                   equal 0.95/((1.1695+0.41628*${bond_damp_val})*$w)
variable dt                   equal 0.95/((1.1695+0.41628*0.001)*$w)
variable dt                   equal 0.95/((1.1695+0.41628*0.001)*323856.939572851)

### Simulation Dependent Parameters
variable restart_step                  equal ceil(${restart_time}/${dt})
variable restart_step                  equal ceil(0.01/${dt})
variable restart_step                  equal ceil(0.01/2.50735376508935e-06)
variable fileprint_step                equal ceil(${fileprint_time}/${dt})
variable fileprint_step                equal ceil(0.01/${dt})
variable fileprint_step                equal ceil(0.01/2.50735376508935e-06)
variable thermo_step                   equal ceil(${thermo_time}/${dt})
variable thermo_step                   equal ceil(0.001/${dt})
variable thermo_step                   equal ceil(0.001/2.50735376508935e-06)
variable output_step                   equal ceil(${output_time}/${dt})
variable output_step                   equal ceil(0.001/${dt})
variable output_step                   equal ceil(0.001/2.50735376508935e-06)
variable current_time                  file  cur_time.txt
variable compress_time                 equal ${plung_dist}/${plung_speed}+${current_time}
variable compress_time                 equal 0.025/${plung_speed}+${current_time}
variable compress_time                 equal 0.025/0.1+${current_time}
variable compress_time                 equal 0.025/0.1+0.185092854938896
variable compress_steps                equal ceil(${compress_time}/${dt})+1
variable compress_steps                equal ceil(0.435092854938896/${dt})+1
variable compress_steps                equal ceil(0.435092854938896/2.50735376508935e-06)+1

### Add needed directories
shell mkdir post/compression
### Build Simulation
# Specify what we are simulating
atom_style hybrid granular bond/gran n_bondtypes 1 bonds_per_atom 6
atom_modify map array
hard_particles yes # <- Needed because of the high Youngs modulus

## newton off is needed due to the tangential history contact model
newton off
communicate single vel yes

# Use hertz-mindeln contact model
pair_style gran model hertz tangential history
# Use the stiff granular bond model
bond_style gran
WARNING: Bond granular: This is a beta version - be careful! (../bond_gran.cpp:100)

processors * * *

## Read in the latest restart file
read_restart restarts/restart*.liggghts
  orthogonal box = (-0.2 -0.2 -0.01) to (0.2 0.2 0.25)
  2 by 2 by 2 MPI processor grid
WARNING: Bond granular: This is a beta version - be careful! (../bond_gran.cpp:100)
  15687 atoms
  14940 bonds
  2 = max # of 1-2 neighbors
  2 = max # of 1-3 neighbors
  4 = max # of 1-4 neighbors
  6 = max # of special neighbors

# Set neighbor bin sizes and update after each run step if needed
neighbor      0.001 bin
neigh_modify delay 0

## Set coefficients for contact and bond model
# For the contact model, we do not need to set anything
pair_coeff * *
# Set coefficients for bond model
bond_coeff 1 ${bond_out_per} ${bond_in_per} ${bond_youngs_modulus} ${bond_shear_modulus} ${bond_damp_type} ${bond_damp_val} 1 1.0e32 1.0e32
bond_coeff 1 1 ${bond_in_per} ${bond_youngs_modulus} ${bond_shear_modulus} ${bond_damp_type} ${bond_damp_val} 1 1.0e32 1.0e32
bond_coeff 1 1 0 ${bond_youngs_modulus} ${bond_shear_modulus} ${bond_damp_type} ${bond_damp_val} 1 1.0e32 1.0e32
bond_coeff 1 1 0 1400000000 ${bond_shear_modulus} ${bond_damp_type} ${bond_damp_val} 1 1.0e32 1.0e32
bond_coeff 1 1 0 1400000000 538461538.461538 ${bond_damp_type} ${bond_damp_val} 1 1.0e32 1.0e32
bond_coeff 1 1 0 1400000000 538461538.461538 3 ${bond_damp_val} 1 1.0e32 1.0e32
bond_coeff 1 1 0 1400000000 538461538.461538 3 0.001 1 1.0e32 1.0e32


## Set material properties for fiber and wall
fix m1 all property/global youngsModulus peratomtype ${fiber_contact_youngs_modulus} ${wall_contact_youngs_modulus}
fix m1 all property/global youngsModulus peratomtype 1400000000 ${wall_contact_youngs_modulus}
fix m1 all property/global youngsModulus peratomtype 1400000000 180000000000
fix m2 all property/global poissonsRatio peratomtype ${particle_poissons_ratio} ${wall_poissons_ratio}
fix m2 all property/global poissonsRatio peratomtype 0.3 ${wall_poissons_ratio}
fix m2 all property/global poissonsRatio peratomtype 0.3 0.3
fix m3 all property/global coefficientRestitution peratomtypepair 2 ${coef_res_pp} ${coef_res_pw}                                                                     ${coef_res_pw} ${coef_res_ww}
fix m3 all property/global coefficientRestitution peratomtypepair 2 0.5 ${coef_res_pw}                                                                     ${coef_res_pw} ${coef_res_ww}
fix m3 all property/global coefficientRestitution peratomtypepair 2 0.5 0.3                                                                     ${coef_res_pw} ${coef_res_ww}
fix m3 all property/global coefficientRestitution peratomtypepair 2 0.5 0.3                                                                     0.3 ${coef_res_ww}
fix m3 all property/global coefficientRestitution peratomtypepair 2 0.5 0.3                                                                     0.3 0.5

fix m4 all property/global coefficientFriction peratomtypepair 2 ${coef_fri_pp} ${coef_fri_pw}                                                                  ${coef_fri_pw} ${coef_fri_ww}
fix m4 all property/global coefficientFriction peratomtypepair 2 0.4 ${coef_fri_pw}                                                                  ${coef_fri_pw} ${coef_fri_ww}
fix m4 all property/global coefficientFriction peratomtypepair 2 0.4 0.6                                                                  ${coef_fri_pw} ${coef_fri_ww}
fix m4 all property/global coefficientFriction peratomtypepair 2 0.4 0.6                                                                  0.6 ${coef_fri_ww}
fix m4 all property/global coefficientFriction peratomtypepair 2 0.4 0.6                                                                  0.6 0.2

## Insert the geometry for the simulation
# Load in the stl file of a container and make it interactable
fix Drum all mesh/surface/stress file STL_files/Drum.STL type 2 scale 0.001 move 0.0 0.0 0.0
INFO: mesh file (STL_files/Drum.STL) is required, but data will be taken from restart file (../fix_mesh.cpp:416)
Resetting global state of Fix Drum Style mesh/surface/stress from restart file info
# Add plunger and place it above the particles
# variable above_particles equal ${max_h}+1.00*${particle_radius}
fix Plung all mesh/surface/stress file STL_files/Plung_225.STL type 2 scale 0.001 move 0.0 0.0 0.0 # ${above_particles}
INFO: mesh file (STL_files/Plung_225.STL) is required, but data will be taken from restart file (../fix_mesh.cpp:416)
Resetting global state of Fix Plung Style mesh/surface/stress from restart file info
# Add the wall back this time with both geometries
fix wall all wall/gran model hertz tangential history mesh n_meshes 2 meshes Drum Plung
Resetting global state of Fix n_neighs_mesh_Drum Style property/atom from restart file info
Resetting per-atom state of Fix n_neighs_mesh_Drum Style property/atom from restart file info
Resetting global state of Fix tracker_Drum Style contacthistory/mesh from restart file info
Resetting per-atom state of Fix tracker_Drum Style contacthistory/mesh from restart file info
Resetting global state of Fix n_neighs_mesh_Plung Style property/atom from restart file info
Resetting per-atom state of Fix n_neighs_mesh_Plung Style property/atom from restart file info
Resetting global state of Fix tracker_Plung Style contacthistory/mesh from restart file info
Resetting per-atom state of Fix tracker_Plung Style contacthistory/mesh from restart file info
# Create a thin infinitly large plane in the x plain at a height of 0.15 meters
fix w1 all wall/gran model hertz tangential history primitive type 2 zplane 0.15
Resetting global state of Fix history_w1 Style property/atom from restart file info
Resetting per-atom state of Fix history_w1 Style property/atom from restart file info

fix grav all gravity 9.81 vector 0.0 0.0 -1.0

fix integr all nve/sphere

timestep ${dt}
timestep 2.50735376508935e-06
print "dt = ${dt}"
dt = 2.50735376508935e-06

## Set screen output
# Track the max height of the particles
compute max_height all reduce max z
variable max_h equal c_max_height
# Track the kinetic energy in the system
variable my_ke equal ke
# Keep track of the time in the simulation
variable sim_time equal step*${dt}
variable sim_time equal step*2.50735376508935e-06

# Set the output to the screen to show the current simulation step, number of atoms, number of bonds, the simulation time,
# Add location of plunger and force on plunger to screen output
variable fz equal f_Plung[3]
variable pz equal f_Plung[9]
thermo_style custom step atoms numbond v_sim_time cpuremain ke v_max_h v_fz v_pz
# Set how often the simulation outputs to the screen
thermo ${thermo_step}
thermo 399
# Ignore particles that leave the domain and do NOT noramlize the data
thermo_modify lost ignore norm no

# Make sure everything is loaded from the restart file
run 1
Resetting global state of Fix contacthistory Style contacthistory from restart file info
Resetting per-atom state of Fix contacthistory Style contacthistory from restart file info
Resetting global state of Fix BOND_PROPAGATE Style bond/propagate/gran from restart file info
Setting up run at Fri Nov  2 10:44:57 2018

WARNING: Fix mesh: Mesh contains highly skewed element, moving mesh (if used) will not parallelize well (../surface_mesh_I.h:656)
Memory usage per processor = 19.0394 Mbytes
    Step    Atoms  numbond       sim_time        CPULeft         KinEng          max_h             fz             pz 
   73820    15687    14940     0.18509285              0  2.4639199e-05    0.072994856              0              0 
   73821    15687    14940     0.18509536              0  2.4648114e-05    0.072994883    0.007319795              0 
Loop time of 0.0021175 on 8 procs for 1 steps with 15687 atoms, finish time Fri Nov  2 10:44:57 2018


Pair  time (%) = 0.000316224 (14.9339)
Bond  time (%) = 0.000466886 (22.049)
Neigh time (%) = 0 (0)
Comm  time (%) = 5.70773e-05 (2.69551)
Outpt time (%) = 8.78041e-05 (4.1466)
Other time (%) = 0.0011895 (56.1751)

Nlocal:    1960.88 ave 4018 max 0 min
Histogram: 4 0 0 0 0 0 0 0 0 4
Nghost:    217.625 ave 472 max 0 min
Histogram: 4 0 0 0 0 0 0 0 2 2
Neighs:    3661 ave 7529 max 0 min
Histogram: 4 0 0 0 0 0 0 0 0 4

Total # of neighbors = 29288
Ave neighs/atom = 1.86702
Ave special neighs/atom = 5.42857
Neighbor list builds = 0
Dangerous builds = 0

## MOVE THE PLUNGER!
fix mv all move/mesh mesh Plung linear 0.0 0.0 -${plung_speed}
fix mv all move/mesh mesh Plung linear 0.0 0.0 -0.1

# Write info to csv file for MATLAB
fix outfile all print ${output_step} "${sim_time}, ${pz}, ${fz}, ${my_ke}" file compression.csv screen no title "t, z, fz, ke"
fix outfile all print 399 "${sim_time}, ${pz}, ${fz}, ${my_ke}" file compression.csv screen no title "t, z, fz, ke"

# Wrtie particle locations to file
dump dmp all custom ${fileprint_step} post/compression/dump*.liggghts id type x y z ix iy iz vx vy vz fx fy fz omegax omegay omegaz radius
dump dmp all custom 3989 post/compression/dump*.liggghts id type x y z ix iy iz vx vy vz fx fy fz omegax omegay omegaz radius

# Wrtie drum location to file
dump stldrm all mesh/vtk ${fileprint_step} post/compression/stl_drum*.vtk stress stresscomponents Drum
dump stldrm all mesh/vtk 3989 post/compression/stl_drum*.vtk stress stresscomponents Drum

# Wrtie plunger location to file
dump stlplg all mesh/vtk ${fileprint_step} post/compression/stl_plung*.vtk stress stresscomponents Plung
dump stlplg all mesh/vtk 3989 post/compression/stl_plung*.vtk stress stresscomponents Plung

# Write restart files as the simulation goes
restart ${restart_step} restarts/restart2.liggghts restarts/restart2.liggghts
restart 3989 restarts/restart2.liggghts restarts/restart2.liggghts

# Run to completion
run ${compress_steps} upto
run 173528 upto
Setting up run at Fri Nov  2 10:44:58 2018

Memory usage per processor = 19.0395 Mbytes
    Step    Atoms  numbond       sim_time        CPULeft         KinEng          max_h             fz             pz 
   73821    15687    14940     0.18509536              0  2.4648114e-05    0.072994883    0.014301677              0 
   74214    15687    14940     0.18608075      188.25496  3.1159862e-05    0.072865807              0 -9.8539003e-05 
   74613    15687    14940     0.18708119      182.71862  2.8500891e-05     0.07274995              0 -0.00019858242 
   75012    15687    14940     0.18808162      182.02197  2.5020592e-05    0.072674904              0 -0.00029862583 
   75411    15687    14940     0.18908205      179.15467  2.8962239e-05    0.072590164              0 -0.00039866925 
   75810    15687    14940     0.19008249      179.54663    2.76332e-05     0.07247434              0 -0.00049871266 
   76209    15687    14940     0.19108292      177.63392  2.5216402e-05    0.072371842              0 -0.00059875608 
   76608    15687    14940     0.19208336      176.01406    3.06664e-05    0.072298286     0.21020955 -0.00069879949 
   77007    15687    14940     0.19308379      174.97574  2.8501095e-05    0.072198121     0.26484743 -0.00079884291 
   77406    15687    14940     0.19408423      173.65252  3.0427891e-05    0.072097007    0.071088554 -0.00089888632 
   77805    15687    14940     0.19508466      172.36362  2.8881295e-05    0.071995545              0 -0.00099892974 
   78204    15687    14940     0.19608509      171.53742  2.9459957e-05    0.071895918  -0.0044648361  -0.0010989732 
   78603    15687    14940     0.19708553      170.47537  2.9349628e-05    0.071794898              0  -0.0011990166 
   79002    15687    14940     0.19808596      169.72459  2.7304735e-05    0.071693892              0    -0.00129906 
   79401    15687    14940      0.1990864      168.74056  2.4215117e-05    0.071593158              0  -0.0013991034 
   79800    15687    14940     0.20008683      168.54591  2.4270956e-05    0.071484145              0  -0.0014991468 
   80199    15687    14940     0.20108726      167.56873  2.4067235e-05    0.071365778              0  -0.0015991902 
   80598    15687    14940      0.2020877      166.61224  2.1674596e-05    0.071256477              0  -0.0016992336 
   80997    15687    14940     0.20308813      165.87348  1.9958406e-05    0.071167411              0  -0.0017992771 
   81396    15687    14940     0.20408857      164.98626   1.811515e-05    0.071098656     0.38674772  -0.0018993205 
   81795    15687    14940       0.205089      164.08964  1.4807856e-05    0.070990809              0  -0.0019993639 
   82194    15687    14940     0.20608944      163.34152  1.4198826e-05    0.070895109              0  -0.0020994073 
   82593    15687    14940     0.20708987      162.49463  1.8095077e-05    0.070796197    0.031540347  -0.0021994507 
   82992    15687    14940      0.2080903       161.6288  1.7768674e-05    0.070692758              0  -0.0022994941 
   83391    15687    14940     0.20909074      160.79835  1.6786824e-05    0.070595789    0.016151419  -0.0023995376 
   83790    15687    14940     0.21009117      162.20008  1.6480639e-05    0.070494855              0   -0.002499581 
   84189    15687    14940     0.21109161      161.32976  1.4969035e-05    0.070396449     0.10417185  -0.0025996244 
   84588    15687    14940     0.21209204      160.45131  1.3869956e-05      0.0702936              0  -0.0026996678 
   84987    15687    14940     0.21309247      159.58516  1.4031362e-05    0.070187584              0  -0.0027997112 
   85386    15687    14940     0.21409291      158.82922  1.3795569e-05    0.070086723              0  -0.0028997546 
   85785    15687    14940     0.21509334      157.97505  1.3557459e-05    0.069986123              0   -0.002999798 
   86184    15687    14940     0.21609378      157.12619  1.3968923e-05    0.069879958              0  -0.0030998415 
   86583    15687    14940     0.21709421      156.29639  1.4543393e-05    0.069764112              0  -0.0031998849 
   86982    15687    14940     0.21809465      155.57152  1.2155388e-05    0.069679334              0  -0.0032999283 
   87381    15687    14940     0.21909508      154.76203  1.5442886e-05    0.069578322              0  -0.0033999717 
   87780    15687    14940     0.22009551      155.32564   1.494224e-05    0.069478916              0  -0.0035000151 
   88179    15687    14940     0.22109595      154.84037  1.4712078e-05    0.069379885              0  -0.0036000585 
   88578    15687    14940     0.22209638      153.99145   1.499779e-05    0.069276268              0   -0.003700102 
   88977    15687    14940     0.22309682      153.17392  1.5770501e-05    0.069165078              0  -0.0038001454 
   89376    15687    14940     0.22409725      152.41256   1.616971e-05     0.06904542              0  -0.0039001888 
   89775    15687    14940     0.22509768       151.5872  1.7131519e-05    0.068918271              0  -0.0040002322 
   90174    15687    14940     0.22609812      150.76118  1.7120565e-05    0.068782912              0  -0.0041002756 
   90573    15687    14940     0.22709855      150.02315  1.7308013e-05    0.068641172              0   -0.004200319 
   90972    15687    14940     0.22809899      149.22216  1.8083342e-05    0.068492613              0  -0.0043003624 
   91371    15687    14940     0.22909942      148.42036  1.8077715e-05    0.068336932              0  -0.0044004059 
   91770    15687    14940     0.23009986      147.91788  1.7589897e-05    0.068175626              0  -0.0045004493 
   92169    15687    14940     0.23110029      147.13074  1.4455889e-05    0.068047451              0  -0.0046004927 
   92568    15687    14940     0.23210072      146.34989  1.3284335e-05    0.067941519              0  -0.0047005361 
   92967    15687    14940     0.23310116      145.56725  1.1680155e-05    0.067843822              0  -0.0048005795 
   93366    15687    14940     0.23410159      144.86538  1.0225979e-05    0.067775467              0  -0.0049006229 
   93765    15687    14940     0.23510203       144.1002  9.6234846e-06    0.067734459              0  -0.0050006663 
   94164    15687    14940     0.23610246      143.33058  9.0122702e-06    0.067704687              0  -0.0051007098 
   94563    15687    14940     0.23710289      142.56294  8.4884711e-06    0.067671763              0  -0.0052007532 
   94962    15687    14940     0.23810333      141.84503   8.113333e-06    0.067635369              0  -0.0053007966 
   95361    15687    14940     0.23910376      141.08149  7.8699184e-06    0.067593453              0    -0.00540084 
   95760    15687    14940      0.2401042      140.49684  1.1998886e-05    0.067457448              0  -0.0055008834 
   96159    15687    14940     0.24110463      139.88468  1.1575547e-05    0.067335617              0  -0.0056009268 
   96558    15687    14940     0.24210506      139.12216  1.0626343e-05    0.067220136              0  -0.0057009703 
   96957    15687    14940      0.2431055       138.3668  9.2031435e-06    0.067120054              0  -0.0058010137 
   97356    15687    14940     0.24410593      137.61071  8.4097054e-06    0.067023357              0  -0.0059010571 
   97755    15687    14940     0.24510637       136.8972  8.0572366e-06    0.066934898              0  -0.0060011005 
   98154    15687    14940      0.2461068      136.14029  8.3465636e-06     0.06684771              0  -0.0061011439 
   98553    15687    14940     0.24710724      135.38341  8.5289455e-06    0.066755154              0  -0.0062011873 
   98952    15687    14940     0.24810767      134.62723  8.7829112e-06    0.066656567              0  -0.0063012307 
   99351    15687    14940      0.2491081      133.90737  8.6572086e-06    0.066552877              0  -0.0064012742 
   99750    15687    14940     0.25010854      133.29088  8.8399325e-06    0.066444003              0  -0.0065013176 
  100149    15687    14940     0.25110897      132.53596  8.7138535e-06     0.06632998              0   -0.006601361 
  100548    15687    14940     0.25210941      131.78698  8.6449244e-06    0.066211517              0  -0.0067014044 
  100947    15687    14940     0.25310984      131.03764  7.5751463e-06    0.066098943              0  -0.0068014478 
  101346    15687    14940     0.25411027      130.28779  7.7245545e-06    0.065990245              0  -0.0069014912 
  101745    15687    14940     0.25511071      129.57426  8.1281641e-06    0.065879274              0  -0.0070015347 
  102144    15687    14940     0.25611114      128.82819  8.4581844e-06    0.065766028              0  -0.0071015781 
  102543    15687    14940     0.25711158      128.08543  8.3217496e-06    0.065648016              0  -0.0072016215 
  102942    15687    14940     0.25811201      127.34201  8.1079506e-06     0.06552723              0  -0.0073016649 
  103341    15687    14940     0.25911245      126.62918  8.0745156e-06    0.065404351              0  -0.0074017083 
  103740    15687    14940     0.26011288      126.00167  7.5853925e-06    0.065290953              0  -0.0075017517 
  104139    15687    14940     0.26111331      125.25584  7.5645203e-06    0.065176783              0  -0.0076017951 
  104538    15687    14940     0.26211375       124.5137  7.3790312e-06    0.065061596              0  -0.0077018386 
  104937    15687    14940     0.26311418      123.76887  6.9849544e-06    0.064946891              0   -0.007801882 
  105336    15687    14940     0.26411462      123.05459  6.8191432e-06    0.064832215              0  -0.0079019254 
  105735    15687    14940     0.26511505      122.32608  4.5560794e-06    0.064740361              0  -0.0080019688 
  106134    15687    14940     0.26611548      121.58128  4.1029238e-06    0.064682147              0  -0.0081020122 
  106533    15687    14940     0.26711592      120.82891   3.695122e-06    0.064631601              0  -0.0082020556 
  106932    15687    14940     0.26811635      120.08394  3.6367759e-06    0.064590463              0  -0.0083020991 
  107331    15687    14940     0.26911679      119.36763  3.7531582e-06    0.064560473              0  -0.0084021425 
  107730    15687    14940     0.27011722      118.72622  1.0453103e-05    0.064477472              0  -0.0085021859 
  108129    15687    14940     0.27111766       118.0165  9.3632267e-06    0.064340408              0  -0.0086022293 
  108528    15687    14940     0.27211809      117.30214  9.4650916e-06    0.064207924              0  -0.0087022727 
  108927    15687    14940     0.27311852      116.56827  9.7921504e-06    0.064195567     0.48996439  -0.0088023161 
  109326    15687    14940     0.27411896       115.8519  1.5568693e-05    0.064091464              0  -0.0089023595 
  109725    15687    14940     0.27511939      115.11236  1.8479083e-05    0.063995546     0.40831587   -0.009002403 
  110124    15687    14940     0.27611983      114.37099  2.6976822e-05    0.063894963     0.30872045  -0.0091024464 
  110523    15687    14940     0.27712026      113.65264  2.7996166e-05    0.063790344              0  -0.0092024898 
  110922    15687    14940     0.27812069       112.9079   2.615126e-05    0.063692978     0.03822138  -0.0093025332 
  111321    15687    14940     0.27912113       112.1884  2.7006423e-05    0.063591922              0  -0.0094025766 
  111720    15687    14940     0.28012156      111.52413   2.660514e-05    0.063497031     0.82458624    -0.00950262 
  112119    15687    14940       0.281122      110.78069  3.2912307e-05    0.063394911      0.3495901  -0.0096026634 
  112518    15687    14940     0.28212243      110.03778  3.2776778e-05    0.063295968     0.61339021  -0.0097027069 
  112917    15687    14940     0.28312287      109.29538  5.6990613e-05    0.063198087      1.3088503  -0.0098027503 
  113316    15687    14940      0.2841233      108.57488  8.7666474e-05    0.063102853      3.2510629  -0.0099027937 
  113715    15687    14940     0.28512373      107.84695  0.00012627184    0.062999878      2.3232985   -0.010002837 
  114114    15687    14940     0.28612417        107.114   0.0001117391    0.062903116       3.483105   -0.010102881 
  114513    15687    14940      0.2871246      106.38264  0.00012483135    0.062804394      4.0878477   -0.010202924 
  114912    15687    14940     0.28812504      105.64516  0.00015770297    0.062704133      4.2474034   -0.010302967 
  115311    15687    14940     0.28912547      104.90876  0.00012087025    0.062607125      5.8637348   -0.010403011 
  115710    15687    14940      0.2901259      104.22115  0.00012206764    0.062508089      6.7071885   -0.010503054 
  116109    15687    14940     0.29112634      103.46812  0.00016697779    0.062409888       7.939105   -0.010603098 
  116508    15687    14940     0.29212677      102.73126  0.00017245162    0.062311858      9.0161238   -0.010703141 
  116907    15687    14940     0.29312721      101.99267  0.00019460063    0.062213364      9.8892636   -0.010803184 
  117306    15687    14940     0.29412764        101.258  0.00019904882    0.062114263      10.958023   -0.010903228 
  117705    15687    14940     0.29512807      100.51959  0.00023158164    0.062016165       12.30911   -0.011003271 
  118104    15687    14940     0.29612851      99.781586  0.00026580883    0.061914774      11.593544   -0.011103315 
  118503    15687    14940     0.29712894      99.156312  0.00032545559     0.06181681      12.934186   -0.011203358 
  118902    15687    14940     0.29812938      98.420414  0.00049462769     0.06170956       8.389329   -0.011303402 
  119301    15687    14940     0.29912981      97.758628  0.00089642204    0.061600476      4.3389062   -0.011403445 
  119700    15687    14940     0.30013025      97.101448  0.00064393531    0.061501015      4.4825679   -0.011503488 
  120099    15687    14940     0.30113068      96.361689  0.00051925133    0.061402077      4.6170722   -0.011603532 
  120498    15687    14940     0.30213111      95.637876  0.00042114686    0.061302353      4.5410765   -0.011703575 
  120897    15687    14940     0.30313155      94.902804  0.00039597102    0.061202476      4.8269689   -0.011803619 
  121296    15687    14940     0.30413198      94.238424  0.00035366635    0.061102176      4.9538954   -0.011903662 
  121695    15687    14940     0.30513242      93.500097   0.0003450966    0.061001239      4.9189758   -0.012003705 
  122094    15687    14940     0.30613285      92.760288  0.00037238942    0.060902225      4.6500789   -0.012103749 
  122493    15687    14940     0.30713328      92.024535  0.00034230607    0.060802637       4.546336   -0.012203792 
  122892    15687    14940     0.30813372      91.304349   0.0003572588    0.060703116       4.035289   -0.012303836 
  123291    15687    14940     0.30913415      90.555277  0.00038366537    0.060603576      4.2166361   -0.012403879 
  123690    15687    14940     0.31013459      90.049367  0.00036574258    0.060504248      4.0705855   -0.012503922 
  124089    15687    14940     0.31113502      89.299958  0.00034400159    0.060404798      4.0718774   -0.012603966 
  124488    15687    14940     0.31213546      88.568753  0.00032424855    0.060305345      4.3160701   -0.012704009 
  124887    15687    14940     0.31313589      87.830539   0.0003372433    0.060205764      4.5487013   -0.012804053 
  125286    15687    14940     0.31413632      87.109419   0.0003409002    0.060106059      4.6562745   -0.012904096 
  125685    15687    14940     0.31513676      86.364282  0.00034611985    0.060006605      5.1114445    -0.01300414 
  126084    15687    14940     0.31613719      85.621717  0.00036652979     0.05990702      5.2705449   -0.013104183 
  126483    15687    14940     0.31713763      84.946019  0.00039242504     0.05981342      8.4890327   -0.013204226 
  126882    15687    14940     0.31813806      84.241424  0.00051951199    0.059721818      13.659354    -0.01330427 
  127281    15687    14940     0.31913849      83.561328  0.00089094306    0.059624782      15.558686   -0.013404313 
  127680    15687    14940     0.32013893      82.893106   0.0017642165    0.059518993      11.870773   -0.013504357 
  128079    15687    14940     0.32113936      82.206206   0.0020563599    0.059403169      3.4788812     -0.0136044 
  128478    15687    14940      0.3221398      81.484988   0.0017571876    0.059294546      1.0210821   -0.013704443 
  128877    15687    14940     0.32314023      80.766393   0.0014991916    0.059192631     0.26817398   -0.013804487 
  129276    15687    14940     0.32414067      80.083634   0.0012514901     0.05909119    0.052333636    -0.01390453 
  129675    15687    14940      0.3251411      79.355154   0.0010403611    0.058990748    0.035302863   -0.014004574 
  130074    15687    14940     0.32614153      78.700617  0.00090055868    0.058893821     0.49405858   -0.014104617 
  130473    15687    14940     0.32714197      77.962468  0.00079455807    0.058790548     0.00450127   -0.014204661 
  130872    15687    14940      0.3281424      77.245788  0.00070698321      0.0586914     0.11122046   -0.014304704 
  131271    15687    14940     0.32914284      76.539467   0.0006590836     0.05859128    0.082178579   -0.014404747 
  131670    15687    14940     0.33014327      76.608733  0.00061735628    0.058492679     0.43293171   -0.014504791 
  132069    15687    14940      0.3311437      75.857455   0.0005881887    0.058393334     0.58384465   -0.014604834 
  132468    15687    14940     0.33214414      75.117008  0.00057008198    0.058293095     0.51278096   -0.014704878 
  132867    15687    14940     0.33314457      74.367321  0.00055875896    0.058192943     0.49127897   -0.014804921 
  133266    15687    14940     0.33414501      73.617381  0.00056103792    0.058092417     0.43570648   -0.014904964 
  133665    15687    14940     0.33514544      72.866555  0.00055438327    0.057992296     0.63359256   -0.015005008 
  134064    15687    14940     0.33614588      72.115491  0.00054793877    0.057891943     0.47450068   -0.015105051 
  134463    15687    14940     0.33714631      71.365928  0.00054536049    0.057792136     0.44693298   -0.015205095 
  134862    15687    14940     0.33814674      70.614635  0.00055267936    0.057698347      2.6925304   -0.015305138 
  135261    15687    14940     0.33914718      69.864362  0.00054544694    0.057618876      12.589624   -0.015405182 
  135660    15687    14940     0.34014761      69.173225  0.00055602923    0.057534561      25.323022   -0.015505225 
  136059    15687    14940     0.34114805      68.414299  0.00061461862    0.057447522      35.687513   -0.015605268 
  136458    15687    14940     0.34214848       67.68413    0.002306576    0.057340253      33.987327   -0.015705312 
  136857    15687    14940     0.34314891      66.952978   0.0017391668    0.057228812         35.152   -0.015805355 
  137256    15687    14940     0.34414935      66.216114   0.0016412679    0.057132032      43.285166   -0.015905399 
  137655    15687    14940     0.34514978      65.477206   0.0015253589    0.057032489       50.41345   -0.016005442 
  138054    15687    14940     0.34615022      64.736251   0.0016760474    0.056931612      69.047268   -0.016105485 
  138453    15687    14940     0.34715065      63.995544   0.0015731021    0.056841708      89.646783   -0.016205529 
  138852    15687    14940     0.34815108      63.251555   0.0023187308    0.056745551      112.86832   -0.016305572 
  139251    15687    14940     0.34915152      62.520849   0.0028360208    0.056651859      109.58674   -0.016405616 
  139650    15687    14940     0.35015195      61.813752   0.0061008312    0.056537766       97.10482   -0.016505659 
  140049    15687    14940     0.35115239       61.10173   0.0044999177    0.056433371      105.24184   -0.016605703 
  140448    15687    14940     0.35215282      60.370353   0.0038488032    0.056324814      93.871078   -0.016705746 
  140847    15687    14940     0.35315326      59.636547   0.0034315292    0.056236824      103.14577   -0.016805789 
  141246    15687    14940     0.35415369      58.903527   0.0028024263    0.056147042      114.91103   -0.016905833 
  141645    15687    14940     0.35515412      58.169007   0.0028073886    0.056053317      122.39536   -0.017005876 
  142044    15687    14940     0.35615456      57.443991   0.0047967766    0.055948313       125.6077    -0.01710592 
  142443    15687    14940     0.35715499      56.731707   0.0053798846    0.055829709      115.50375   -0.017205963 
  142842    15687    14940     0.35815543      56.023951   0.0038607114     0.05573314      120.62765   -0.017306006 
  143241    15687    14940     0.35915586      55.293616   0.0035077317     0.05564397      128.92289    -0.01740605 
  143640    15687    14940     0.36015629      54.572886   0.0034871723    0.055551483      140.01675   -0.017506093 
  144039    15687    14940     0.36115673      53.832784   0.0033311493    0.055455399      153.63185   -0.017606137 
  144438    15687    14940     0.36215716      53.098197   0.0039739824    0.055356955      165.82024    -0.01770618 
  144837    15687    14940      0.3631576      52.364151   0.0062243158    0.055248823      167.31996   -0.017806223 
  145236    15687    14940     0.36415803      51.642031    0.009234874    0.055139263      162.08545   -0.017906267 
  145635    15687    14940     0.36515847      50.917189   0.0079942641    0.055029223      170.88676    -0.01800631 
  146034    15687    14940      0.3661589      50.190167   0.0067425184     0.05493841      180.66192   -0.018106354 
  146433    15687    14940     0.36715933      49.461911   0.0056168433     0.05484637      204.85257   -0.018206397 
  146832    15687    14940     0.36815977      48.729055   0.0054613881    0.054748451       219.9074   -0.018306441 
  147231    15687    14940      0.3691602      48.015045   0.0059830517     0.05463513      204.86365   -0.018406484 
  147630    15687    14940     0.37016064      47.326696    0.006628684    0.054538082      231.89945   -0.018506527 
  148029    15687    14940     0.37116107      46.615026   0.0054507325    0.054439819      228.01633   -0.018606571 
  148428    15687    14940      0.3721615       45.88018    0.005768844     0.05434538      232.81183   -0.018706614 
  148827    15687    14940     0.37316194      45.145143   0.0061660156    0.054243366      225.59126   -0.018806658 
  149226    15687    14940     0.37416237      44.414013   0.0063177524    0.054134458      216.12613   -0.018906701 
  149625    15687    14940     0.37516281      43.685092   0.0060587003    0.054031234        213.852   -0.019006744 
  150024    15687    14940     0.37616324      42.950269   0.0057612685    0.053931293      211.36489   -0.019106788 
  150423    15687    14940     0.37716368      42.216785   0.0053972166    0.053831435       211.8282   -0.019206831 
  150822    15687    14940     0.37816411      41.480464   0.0051251339    0.053731639      209.86726   -0.019306875 
  151221    15687    14940     0.37916454      40.745661   0.0049820791    0.053631894      212.72836   -0.019406918 
  151620    15687    14940     0.38016498      40.023378   0.0045477087    0.053532094      215.45885   -0.019506962 
  152019    15687    14940     0.38116541      39.284722   0.0041947991    0.053432221      218.38878   -0.019607005 
  152418    15687    14940     0.38216585      38.546976   0.0039299398    0.053332217      221.88217   -0.019707048 
  152817    15687    14940     0.38316628      37.806366   0.0037413565    0.053232356      223.29047   -0.019807092 
  153216    15687    14940     0.38416671      37.070636   0.0035124287    0.053132791      233.98323   -0.019907135 
  153615    15687    14940     0.38516715      36.331834   0.0032899119    0.053032871      246.81086   -0.020007179 
  154014    15687    14940     0.38616758      35.596027   0.0031993393    0.052932994      257.04805   -0.020107222 
  154413    15687    14940     0.38716802      34.861254   0.0030270188    0.052838906      265.08983   -0.020207265 
  154812    15687    14940     0.38816845      34.124231    0.002830004     0.05274453      270.68325   -0.020307309 
  155211    15687    14940     0.38916889      33.390404   0.0029634314     0.05264743      280.11517   -0.020407352 
  155610    15687    14940     0.39016932      32.668144   0.0034678664    0.052550638      291.67267   -0.020507396 
  156009    15687    14940     0.39116975      31.937053   0.0050923709      0.0524442      305.61478   -0.020607439 
  156408    15687    14940     0.39217019       31.21145   0.0064651472    0.052335504      314.05051   -0.020707483 
  156807    15687    14940     0.39317062      30.483133    0.004828098    0.052242083      338.21561   -0.020807526 
  157206    15687    14940     0.39417106      29.759926   0.0041249243    0.052147925      359.71348   -0.020907569 
  157605    15687    14940     0.39517149      29.026686   0.0038974103    0.052052403      374.81281   -0.021007613 
  158004    15687    14940     0.39617192      28.293971   0.0041834564    0.051955202      380.24056   -0.021107656 
  158403    15687    14940     0.39717236      27.563994    0.005616365    0.051856753      383.37765     -0.0212077 
  158802    15687    14940     0.39817279      26.843562   0.0082824676    0.051755635      352.60785   -0.021307743 
  159201    15687    14940     0.39917323      26.128216    0.010430721    0.051653568      340.63931   -0.021407786 
  159600    15687    14940     0.40017366      25.417617   0.0098288976    0.051552875      339.04352    -0.02150783 
  159999    15687    14940      0.4011741      24.696924    0.011599906    0.051437604      325.68097   -0.021607873 
  160398    15687    14940     0.40217453      23.973037    0.011530236    0.051337696      305.94615   -0.021707917 
  160797    15687    14940     0.40317496      23.247436   0.0084716486     0.05123775       300.3831    -0.02180796 
  161196    15687    14940      0.4041754      22.517388    0.006190732    0.051137783      320.75251   -0.021908004 
  161595    15687    14940     0.40517583      21.787546   0.0051976416    0.051037946      353.04644   -0.022008047 
  161994    15687    14940     0.40617627      21.055843    0.004900655    0.050938025      384.27383    -0.02210809 
  162393    15687    14940      0.4071767      20.326483   0.0045693134    0.050838125      409.78961   -0.022208134 
  162792    15687    14940     0.40817713      19.595859   0.0042062374    0.050738466       433.0138   -0.022308177 
  163191    15687    14940     0.40917757      18.867238   0.0049921075    0.050642949      433.17614   -0.022408221 
  163590    15687    14940       0.410178      18.145111    0.006084767    0.050544521      441.81298   -0.022508264 
  163989    15687    14940     0.41117844      17.421125   0.0068511322    0.050438542      417.90446   -0.022608307 
  164388    15687    14940     0.41217887      16.695942   0.0056271767    0.050338783      399.14897   -0.022708351 
  164787    15687    14940      0.4131793      15.966459   0.0049636581    0.050238895      405.61868   -0.022808394 
  165186    15687    14940     0.41417974      15.239379   0.0043298991    0.050138942      405.26099   -0.022908438 
  165585    15687    14940     0.41518017      14.510147   0.0042933796    0.050039145      403.21326   -0.023008481 
  165984    15687    14940     0.41618061      13.782056   0.0039373214    0.049939332      404.08599   -0.023108525 
  166383    15687    14940     0.41718104      13.053137   0.0035568204    0.049839704      413.00925   -0.023208568 
  166782    15687    14940     0.41818148      12.323941   0.0030998049    0.049740296      426.32276   -0.023308611 
  167181    15687    14940     0.41918191      11.594094   0.0028226922    0.049640578      443.21362   -0.023408655 
  167580    15687    14940     0.42018234       10.86827   0.0026813125    0.049540993       461.2599   -0.023508698 
  167979    15687    14940     0.42118278      10.138421   0.0027129673    0.049441399      474.04275   -0.023608742 
  168378    15687    14940     0.42218321      9.4100001   0.0027189427     0.04934179      485.74057   -0.023708785 
  168777    15687    14940     0.42318365      8.6815218   0.0026923185    0.049241967      493.00516   -0.023808828 
  169176    15687    14940     0.42418408      7.9531735   0.0029771074    0.049143025      487.01701   -0.023908872 
  169575    15687    14940     0.42518451       7.226313   0.0091829249    0.049042723      444.28443   -0.024008915 
  169974    15687    14940     0.42618495      6.4988007   0.0040149741    0.048943055      444.56073   -0.024108959 
  170373    15687    14940     0.42718538      5.7698771   0.0036502055    0.048843106       446.8678   -0.024209002 
  170772    15687    14940     0.42818582      5.0406761   0.0028881639    0.048743145      448.50702   -0.024309045 
  171171    15687    14940     0.42918625      4.3111719   0.0025718316    0.048643176      455.89765   -0.024409089 
  171570    15687    14940     0.43018669      3.5839922   0.0025820166    0.048543091      462.14678   -0.024509132 
  171969    15687    14940     0.43118712      2.8541571   0.0027210954    0.048443378      457.39907   -0.024609176 
  172368    15687    14940     0.43218755      2.1238656   0.0025820139    0.048343569      458.76852   -0.024709219 
  172767    15687    14940     0.43318799       1.393527   0.0021863161    0.048243586      471.73855   -0.024809263 
  173166    15687    14940     0.43418842     0.66299263   0.0018912479    0.048143382      474.52951   -0.024909306 
  173528    15687    14940     0.43509608              0   0.0016510119    0.048053058      482.68366   -0.025000072 
Loop time of 182.615 on 8 procs for 99707 steps with 15687 atoms, finish time Fri Nov  2 10:48:00 2018


Pair  time (%) = 27.1501 (14.8674)
Bond  time (%) = 41.5683 (22.7628)
Neigh time (%) = 1.19053 (0.651933)
Comm  time (%) = 2.42757 (1.32934)
Outpt time (%) = 2.34816 (1.28585)
Other time (%) = 107.93 (59.1027)

Nlocal:    1960.88 ave 4096 max 0 min
Histogram: 4 0 0 0 0 0 0 0 0 4
Nghost:    201.625 ave 427 max 0 min
Histogram: 4 0 0 0 0 0 0 0 0 4
Neighs:    3728 ave 7800 max 0 min
Histogram: 4 0 0 0 0 0 0 0 0 4

Total # of neighbors = 29824
Ave neighs/atom = 1.90119
Ave special neighs/atom = 5.42857
Neighbor list builds = 439
Dangerous builds = 0
